 vasp.5.3.5 31Mar14 (build Nov 02 2014 15:17:37) complex

 executed on        ion-Intel-MKL date 2016.08.14  08:46:15

 INCAR:
 POTCAR:   PAW_PBE C 08Apr2002
 POTCAR:   PAW_PBE C 08Apr2002
   VRHFIN =C: s2p2

   TITEL  = PAW_PBE C 08Apr2002
   POMASS =   12.011; ZVAL   =    4.000    mass and valenz
   ENMAX  =  400.000; ENMIN  =  300.000 eV
   QCUT   =   -5.516; QGAM   =   11.032    optimization parameters

   Description
     l     E      TYP  RCUT    TYP  RCUT
     0   .000     23  1.200
     0   .000     23  1.200
     1   .000     23  1.500
     1  2.500     23  1.500
     2   .000      7  1.500

 PAW_PBE C 08Apr2002                    :

 POSCAR: CIF file
  positions in direct lattice
  velocities in cartesian coordinates
 exchange correlation table for  LEXCH =        8
   RHO(1)=    0.500       N(1)  =     2000
   RHO(2)=  100.500       N(2)  =     4000

 ion  position               nearest neighbor table
   1  1.000  0.000  0.250-   3 1.42   3 1.43   3 1.43
   2  0.000  1.000  0.750-   4 1.42   4 1.43   4 1.43
   3  0.333  0.667  0.250-   1 1.42   1 1.43   1 1.43
   4  0.667  0.333  0.750-   2 1.42   2 1.43   2 1.43

  LATTYP: Found a base centered orthorhombic cell.
 ALAT       =     2.4712325073
 B/A-ratio  =     1.7272928269
 C/A-ratio  =     2.9444946534

  Lattice vectors:

 A1 = (   2.4661411109,   0.0029395191,   0.0000000000)
 A2 = (  -1.2305248572,   2.1372106108,   0.0000000000)
 A3 = (   0.0000000000,   0.0000000000,   7.2765309050)

Analysis of symmetry for initial positions (statically):
 Subroutine PRICEL returns:
 Original cell was already a primitive cell.

 Routine SETGRP: Setting up the symmetry group for a
 base centered orthorhombic supercell.

 Subroutine GETGRP returns: Found  8 space group operations
 (whereof  4 operations were pure point group operations)
 out of a pool of  8 trial point group operations.

The static configuration has the point symmetry C_2h.
 The point group associated with its full space group is D_2h.

Analysis of symmetry for dynamics (positions and initial velocities):
 Subroutine PRICEL returns:
 Original cell was already a primitive cell.

 Routine SETGRP: Setting up the symmetry group for a
 base centered orthorhombic supercell.

 Subroutine GETGRP returns: Found  8 space group operations
 (whereof  4 operations were pure point group operations)
 out of a pool of  8 trial point group operations.

The dynamic configuration has the point symmetry C_2h.
 The point group associated with its full space group is D_2h.

 KPOINTS: B4C B11C-CBC

Automatic generation of k-mesh.
Space group operators:
 irot       det(A)        alpha          n_x          n_y          n_z        tau_x        tau_y        tau_z
    1     1.000000     0.000001     1.000000     0.000000     0.000000     0.000000     0.000000     0.000000
    2    -1.000000     0.000001     1.000000     0.000000     0.000000     0.000000     0.000000     0.000000
    3     1.000000   180.000000    -0.500000    -0.866025     0.000000     0.000000     0.000000     0.000000
    4    -1.000000   180.000000    -0.500000    -0.866025     0.000000     0.000000     0.000000     0.000000
    5     1.000000   180.000000     0.000000     0.000000     1.000000     0.000000     0.000000     0.500000
    6    -1.000000   180.000000     0.000000     0.000000     1.000000     0.000000     0.000000     0.500000
    7     1.000000   180.000000     0.866025    -0.500000     0.000000     0.000000     0.000000     0.500000
    8    -1.000000   180.000000     0.866025    -0.500000     0.000000     0.000000     0.000000     0.500000

 Subroutine IBZKPT returns following result:

 Found    455 irreducible k-points:

 Following reciprocal coordinates:
            Coordinates               Weight
  0.000000  0.000000  0.000000      1.000000
  0.055556 -0.000000  0.000000      4.000000
  0.111111 -0.000000  0.000000      4.000000
  0.166667 -0.000000  0.000000      4.000000
  0.222222 -0.000000  0.000000      4.000000
  0.277778 -0.000000  0.000000      4.000000
  0.333333 -0.000000  0.000000      4.000000
  0.388889 -0.000000  0.000000      4.000000
  0.444444 -0.000000  0.000000      4.000000
  0.500000 -0.000000  0.000000      2.000000
  0.055556  0.055556  0.000000      2.000000
  0.111111  0.055556  0.000000      4.000000
  0.166667  0.055556  0.000000      4.000000
  0.222222  0.055556  0.000000      4.000000
  0.277778  0.055556  0.000000      4.000000
  0.333333  0.055556  0.000000      4.000000
  0.388889  0.055556  0.000000      4.000000
  0.444444  0.055556  0.000000      4.000000
  0.500000  0.055556  0.000000      4.000000
 -0.444444  0.055556  0.000000      4.000000
 -0.388889  0.055556  0.000000      4.000000
 -0.333333  0.055556  0.000000      4.000000
 -0.277778  0.055556  0.000000      4.000000
 -0.222222  0.055556  0.000000      4.000000
 -0.166667  0.055556  0.000000      4.000000
 -0.111111  0.055556  0.000000      4.000000
 -0.055556  0.055556  0.000000      2.000000
  0.111111  0.111111  0.000000      2.000000
  0.166667  0.111111  0.000000      4.000000
  0.222222  0.111111  0.000000      4.000000
  0.277778  0.111111  0.000000      4.000000
  0.333333  0.111111  0.000000      4.000000
  0.388889  0.111111  0.000000      4.000000
  0.444444  0.111111  0.000000      4.000000
  0.500000  0.111111  0.000000      4.000000
 -0.444444  0.111111  0.000000      4.000000
 -0.388889  0.111111  0.000000      4.000000
 -0.333333  0.111111  0.000000      4.000000
 -0.277778  0.111111  0.000000      4.000000
 -0.222222  0.111111  0.000000      4.000000
 -0.166667  0.111111  0.000000      4.000000
 -0.111111  0.111111  0.000000      2.000000
  0.166667  0.166667  0.000000      2.000000
  0.222222  0.166667  0.000000      4.000000
  0.277778  0.166667  0.000000      4.000000
  0.333333  0.166667  0.000000      4.000000
  0.388889  0.166667  0.000000      4.000000
  0.444444  0.166667  0.000000      4.000000
  0.500000  0.166667  0.000000      4.000000
 -0.444444  0.166667  0.000000      4.000000
 -0.388889  0.166667  0.000000      4.000000
 -0.333333  0.166667  0.000000      4.000000
 -0.277778  0.166667  0.000000      4.000000
 -0.222222  0.166667  0.000000      4.000000
 -0.166667  0.166667  0.000000      2.000000
  0.222222  0.222222  0.000000      2.000000
  0.277778  0.222222  0.000000      4.000000
  0.333333  0.222222  0.000000      4.000000
  0.388889  0.222222  0.000000      4.000000
  0.444444  0.222222  0.000000      4.000000
[...]
  0.388889  0.333333  0.500000      4.000000
  0.444444  0.333333  0.500000      4.000000
  0.500000  0.333333  0.500000      4.000000
 -0.444444  0.333333  0.500000      4.000000
 -0.388889  0.333333  0.500000      4.000000
 -0.333333  0.333333  0.500000      2.000000
  0.388889  0.388889  0.500000      2.000000
  0.444444  0.388889  0.500000      4.000000
  0.500000  0.388889  0.500000      4.000000
 -0.444444  0.388889  0.500000      4.000000
 -0.388889  0.388889  0.500000      2.000000
  0.444444  0.444444  0.500000      2.000000
  0.500000  0.444444  0.500000      4.000000
 -0.444444  0.444444  0.500000      2.000000
  0.500000  0.500000  0.500000      1.000000

 Following cartesian coordinates:
            Coordinates               Weight
  0.000000  0.000000  0.000000      1.000000
  0.022512  0.012961  0.000000      4.000000
  0.045024  0.025923  0.000000      4.000000
  0.067536  0.038884  0.000000      4.000000
  0.090047  0.051846  0.000000      4.000000
  0.112559  0.064807  0.000000      4.000000
  0.135071  0.077769  0.000000      4.000000
  0.157583  0.090730  0.000000      4.000000
  0.180095  0.103692  0.000000      4.000000
  0.202607  0.116653  0.000000      2.000000
  0.022481  0.038938  0.000000      2.000000
  0.044993  0.051900  0.000000      4.000000
  0.067505  0.064861  0.000000      4.000000
  0.090017  0.077823  0.000000      4.000000
  0.112528  0.090784  0.000000      4.000000
  0.135040  0.103745  0.000000      4.000000
  0.157552  0.116707  0.000000      4.000000
  0.180064  0.129668  0.000000      4.000000
  0.202576  0.142630  0.000000      4.000000
 -0.180126 -0.077715  0.000000      4.000000
 -0.157614 -0.064754  0.000000      4.000000
 -0.135102 -0.051792  0.000000      4.000000
 -0.112590 -0.038831  0.000000      4.000000
 -0.090078 -0.025869  0.000000      4.000000
 -0.067567 -0.012908  0.000000      4.000000
 -0.045055  0.000054  0.000000      4.000000
 -0.022543  0.013015  0.000000      2.000000
  0.044962  0.077876  0.000000      2.000000
  0.067474  0.090838  0.000000      4.000000
  0.089986  0.103799  0.000000      4.000000
  0.112497  0.116761  0.000000      4.000000
  0.135009  0.129722  0.000000      4.000000
  0.157521  0.142684  0.000000      4.000000
  0.180033  0.155645  0.000000      4.000000
  0.202545  0.168607  0.000000      4.000000
 -0.180157 -0.051739  0.000000      4.000000
 -0.157645 -0.038777  0.000000      4.000000
 -0.135133 -0.025816  0.000000      4.000000
 -0.112621 -0.012854  0.000000      4.000000
 -0.090109  0.000107  0.000000      4.000000
 -0.067598  0.013069  0.000000      4.000000
 -0.045086  0.026030  0.000000      2.000000
  0.067443  0.116814  0.000000      2.000000
  0.089955  0.129776  0.000000      4.000000
  0.112466  0.142737  0.000000      4.000000
  0.134978  0.155699  0.000000      4.000000
  0.157490  0.168660  0.000000      4.000000
  0.180002  0.181622  0.000000      4.000000
  0.202514  0.194583  0.000000      4.000000
 -0.180188 -0.025762  0.000000      4.000000
 -0.157676 -0.012801  0.000000      4.000000
 -0.135164  0.000161  0.000000      4.000000
 -0.112652  0.013122  0.000000      4.000000
 -0.090140  0.026084  0.000000      4.000000
 -0.067629  0.039045  0.000000      2.000000
  0.089924  0.155752  0.000000      2.000000
  0.112436  0.168714  0.000000      4.000000
  0.134947  0.181675  0.000000      4.000000
  0.157459  0.194637  0.000000      4.000000
  0.179971  0.207598  0.000000      4.000000
[...]
  0.157397  0.246590  0.068714      4.000000
  0.179909  0.259551  0.068714      4.000000
  0.202421  0.272513  0.068714      4.000000
 -0.180281  0.052168  0.068714      4.000000
 -0.157769  0.065129  0.068714      4.000000
 -0.135257  0.078091  0.068714      2.000000
  0.157366  0.272567  0.068714      2.000000
  0.179878  0.285528  0.068714      4.000000
  0.202390  0.298490  0.068714      4.000000
 -0.180312  0.078144  0.068714      4.000000
 -0.157800  0.091106  0.068714      2.000000
  0.179847  0.311505  0.068714      2.000000
  0.202359  0.324466  0.068714      4.000000
 -0.180343  0.104121  0.068714      2.000000
  0.202328  0.350443  0.068714      1.000000

 TETIRR: Found   3888 inequivalent tetrahedra from    15552

 I would recommend the setting:
   dimension x,y,z NGX =    20 NGY =   20 NGZ =   58
 SYSTEM =  graphite
 POSCAR =  CIF file

 Startparameter for this run:
   NWRITE =      2    write-flag & timer
   PREC   = accura    normal or accurate (medium, high low for compatibility)
   ISTART =      0    job   : 0-new  1-cont  2-samecut
   ICHARG =      2    charge: 1-file 2-atom 10-const
   ISPIN  =      1    spin polarized calculation?
   LNONCOLLINEAR =      F non collinear calculations
   LSORBIT =      F    spin-orbit coupling
[...]
 k-point ** :   0.2222 0.1111 0.1250  plane waves:    1276
 k-point ** :   0.2778 0.1111 0.1250  plane waves:    1277
 k-point ** :   0.3333 0.1111 0.1250  plane waves:    1282
 k-point ** :   0.3889 0.1111 0.1250  plane waves:    1289
 k-point ** :   0.4444 0.1111 0.1250  plane waves:    1288
 k-point ** :   0.5000 0.1111 0.1250  plane waves:    1287
 k-point ** :  -0.4444 0.1111 0.1250  plane waves:    1282
 k-point ** :  -0.3889 0.1111 0.1250  plane waves:    1274
 k-point ** :  -0.3333 0.1111 0.1250  plane waves:    1275
 k-point ** :  -0.2778 0.1111 0.1250  plane waves:    1275
 k-point ** :  -0.2222 0.1111 0.1250  plane waves:    1267
 k-point ** :  -0.1667 0.1111 0.1250  plane waves:    1270
 k-point ** :  -0.1111 0.1111 0.1250  plane waves:    1267
 k-point ** :   0.1667 0.1667 0.1250  plane waves:    1270
 k-point ** :   0.2222 0.1667 0.1250  plane waves:    1277
 k-point ** :   0.2778 0.1667 0.1250  plane waves:    1283
 k-point ** :   0.3333 0.1667 0.1250  plane waves:    1288
 k-point ** :   0.3889 0.1667 0.1250  plane waves:    1292
 k-point ** :   0.4444 0.1667 0.1250  plane waves:    1291
 k-point ** :   0.5000 0.1667 0.1250  plane waves:    1286
 k-point ** :  -0.4444 0.1667 0.1250  plane waves:    1287
 k-point ** :  -0.3889 0.1667 0.1250  plane waves:    1277
 k-point ** :  -0.3333 0.1667 0.1250  plane waves:    1271
 k-point ** :  -0.2778 0.1667 0.1250  plane waves:    1273
 k-point ** :  -0.2222 0.1667 0.1250  plane waves:    1273
 k-point ** :  -0.1667 0.1667 0.1250  plane waves:    1268
 k-point ** :   0.2222 0.2222 0.1250  plane waves:    1290
 k-point ** :   0.2778 0.2222 0.1250  plane waves:    1285
 k-point ** :   0.3333 0.2222 0.1250  plane waves:    1295
 k-point ** :   0.3889 0.2222 0.1250  plane waves:    1293
 k-point ** :   0.4444 0.2222 0.1250  plane waves:    1294
 k-point ** :   0.5000 0.2222 0.1250  plane waves:    1289
 k-point ** :  -0.4444 0.2222 0.1250  plane waves:    1295
 k-point ** :  -0.3889 0.2222 0.1250  plane waves:    1277
 k-point ** :  -0.3333 0.2222 0.1250  plane waves:    1276
 k-point ** :  -0.2778 0.2222 0.1250  plane waves:    1275
 k-point ** :  -0.2222 0.2222 0.1250  plane waves:    1276
 k-point ** :   0.2778 0.2778 0.1250  plane waves:    1292
 k-point ** :   0.3333 0.2778 0.1250  plane waves:    1301
[...]
 k-point ** :   0.3889 0.3333 0.5000  plane waves:    1308
 k-point ** :   0.4444 0.3333 0.5000  plane waves:    1302
 k-point ** :   0.5000 0.3333 0.5000  plane waves:    1294
 k-point ** :  -0.4444 0.3333 0.5000  plane waves:    1284
 k-point ** :  -0.3889 0.3333 0.5000  plane waves:    1274
 k-point ** :  -0.3333 0.3333 0.5000  plane waves:    1272
 k-point ** :   0.3889 0.3889 0.5000  plane waves:    1302
 k-point ** :   0.4444 0.3889 0.5000  plane waves:    1298
 k-point ** :   0.5000 0.3889 0.5000  plane waves:    1288
 k-point ** :  -0.4444 0.3889 0.5000  plane waves:    1280
 k-point ** :  -0.3889 0.3889 0.5000  plane waves:    1274
 k-point ** :   0.4444 0.4444 0.5000  plane waves:    1286
 k-point ** :   0.5000 0.4444 0.5000  plane waves:    1276
 k-point ** :  -0.4444 0.4444 0.5000  plane waves:    1278
 k-point ** :   0.5000 0.5000 0.5000  plane waves:    1264

 maximum and minimum number of plane-waves per node :       442      401

 maximum number of plane-waves:      1320
 maximum index in each direction:
   IXMAX=    5   IYMAX=    4   IZMAX=   14
   IXMIN=   -5   IYMIN=   -5   IZMIN=  -15

 WARNING: aliasing errors must be expected set NGX to  22 to avoid them
 NGY is ok and might be reduce to  20
 NGZ is ok and might be reduce to  60
 aliasing errors are usually negligible using standard VASP settings
 and one can safely disregard these warnings

 parallel 3D FFT for wavefunctions:
    minimum data exchange during FFTs selected (reduces bandwidth)
 parallel 3D FFT for charge:
    minimum data exchange during FFTs selected (reduces bandwidth)

 Broyden mixing: mesh for mixing (old mesh)
   NGX =  9   NGY =  9   NGZ = 29
  (NGX  = 40   NGY  = 40   NGZ  =120)
  gives a total of   2349 points

 initial charge density was supplied:
 charge density of overlapping atoms calculated
 number of electron      16.0000000 magnetization
 keeping initial charge density in first step

 Maximum index for augmentation-charges         1363 (set IRDMAX)

 First call to EWALD:  gamma=   0.525
 Maximum number of real-space cells 4x 4x 2
 Maximum number of reciprocal cells 2x 2x 5

 FEWALD executed in parallel

----------------------------------------- Iteration    1(   1)  ---------------------------------------

 BZINTS: Fermi energy: 13.422046; 16.000000 electrons
         Band energy: -19.585245;  BLOECHL correction: -0.409312

 eigenvalue-minimisations  : 10944
 total energy-change (2. order) : 0.6134316E+02  (-0.8891888E+03)
 number of electron      16.0000000 magnetization
 augmentation part       16.0000000 magnetization

 Free energy of the ion-electron system (eV)
  alpha Z        PSCENC =        33.96912098
  Ewald energy   TEWEN  =      -408.97288858
  -Hartree energ DENC   =      -183.31819463
  -exchange      EXHF   =         0.00000000
  -V(xc)+E(xc)   XCENC  =        55.25113125
  PAW double counting   =       151.32577238     -155.92769107
  entropy T*S    EENTRO =         0.00000000
  eigenvalues    EBANDS =       -19.58524488
  atomic energy  EATOM  =       588.60115103
  free energy    TOTEN  =        61.34315649 eV

  energy without entropy =       61.34315649  energy(sigma->0) =       61.34315649

[...]

 BZINTS: Fermi energy:  2.644664; 16.000000 electrons
         Band energy:-115.489647;  BLOECHL correction: -0.000049

 eigenvalue-minimisations  : 15724
 total energy-change (2. order) :-0.9590440E+02  (-0.8806924E+02)
 number of electron      16.0000000 magnetization
 augmentation part       16.0000000 magnetization

[...]

 Broyden mixing:
  rms(total) = 0.77887E+00    rms(broyden)= 0.77878E+00
  rms(prec ) = 0.12002E+01
  weight for this iteration     100.00

[...]

 BZINTS: Fermi energy:  3.151186; 16.000000 electrons
         Band energy:-101.649836;  BLOECHL correction:  0.000000

[...]

 eigenvalues of (default mixing * dielectric matrix)
  average eigenvalue GAMMA=   2.0349
  2.0349

[...]

 average (electrostatic) potential at core
  the test charge radii are     0.6991
  (the norm of the test charge is              1.0000)
       1 -51.4363       2 -51.4363       3 -51.4236       4 -51.4236

 E-fermi :   3.9823     XC(G=0):  -9.7431     alpha+bet :-10.4631

 k-point     1 :       0.0000    0.0000    0.0000
  band No.  band energies     occupation
      1     -15.5724      2.00000
      2     -15.4166      2.00000
      3      -4.2079      2.00000
      4      -2.9314      2.00000
      5       0.9423      2.00000
      6       0.9498      2.00000
      7       0.9976      2.00000
      8       1.0051      2.00000
      9       7.7275      0.00000
     10      12.2244      0.00000
     11      12.2462      0.00000
     12      12.3733      0.00000

[...]

 soft charge-density along one line, spin component           1
         0         1         2         3         4         5         6         7         8         9
 total charge-density along one line

------------------------ aborting loop because EDIFF is reached ----------------------------------------

  FORCE on cell =-STRESS in cart. coord.  units (eV):
  Direction    XX          YY          ZZ          XY          YZ          ZX
  Alpha Z    33.96912    33.96912    33.96912
  Ewald     129.12573   127.76288  -665.86203    -1.18026     0.00000     0.00000
  Hartree   198.31448   198.09270  -175.57900    -0.19207    -0.00000    -0.00000
  E(xc)     -58.36938   -58.37281   -60.61311    -0.00297     0.00000     0.00000
  Local    -527.41617  -526.08385   607.62996     1.15382     0.00000    -0.00000
  n-local   -14.42832   -13.63584   -12.79329    -0.19258     0.00537    -0.00532
  augment    -1.54265    -1.54061    -1.41381     0.00177     0.00000    -0.00000
  Kinetic   243.74899   236.21043   274.89405     2.09805    -0.07913     0.07633
  Fock        0.00000     0.00000     0.00000     0.00000     0.00000     0.00000
  Total       0.04691    -0.24309     0.23189    -0.25114    -0.00000    -0.00000
  in kB       1.95814   -10.14822     9.68061   -10.48441    -0.00000    -0.00000

 VOLUME and BASIS-vectors are now :
  energy-cutoff  :      600.00
  volume of cell :       38.38
      direct lattice vectors                 reciprocal lattice vectors
     2.466141111  0.002939519  0.000000000     0.405213711  0.233306695  0.000000000
    -1.230524857  2.137210611  0.000000000    -0.000557331  0.467578715  0.000000000
     0.000000000  0.000000000  7.276530905     0.000000000  0.000000000  0.137428125

[...]

 FORCES acting on ions
    electron-ion (+dipol)            ewald-force                    non-local-force                 convergence-correction
   0.798E+00 -.461E+00 -.115E-11   -.872E+00 0.504E+00 -.190E-13   -.399E-01 0.230E-01 0.108E-18   -.856E-05 0.494E-05 0.980E-14
   -.798E+00 0.461E+00 0.136E-13   0.872E+00 -.504E+00 0.190E-13   0.399E-01 -.230E-01 -.108E-18   0.856E-05 -.494E-05 -.149E-13
   -.800E+00 0.462E+00 0.672E-12   0.873E+00 -.504E+00 -.190E-13   0.393E-01 -.227E-01 0.108E-18   0.954E-05 -.551E-05 0.665E-14
   0.800E+00 -.462E+00 -.139E-11   -.873E+00 0.504E+00 0.190E-13   -.393E-01 0.227E-01 -.325E-18   -.954E-05 0.551E-05 -.130E-13
   -.683E-05 -.118E-04 -.186E-11   0.000E+00 0.400E-14 0.000E+00   0.555E-16 -.555E-16 -.217E-18   -.166E-09 -.287E-09 -.115E-13

 POSITION                                       TOTAL-FORCE (eV/Angst)
      2.46547      0.00333      1.81913        -0.114372      0.066032     -0.000000
     -1.22985      2.13682      5.45740         0.114372     -0.066032     -0.000000
     -0.00094      1.42731      1.81913         0.112316     -0.064846      0.000000
      1.23655      0.71284      5.45740        -0.112316      0.064846     -0.000000
    total drift:                               -0.000007     -0.000012     -0.000000

  FREE ENERGIE OF THE ION-ELECTRON SYSTEM (eV)
  free  energy   TOTEN  =       -36.87481691 eV

  energy  without entropy=      -36.87481691  energy(sigma->0) =      -36.87481691

[...]

 d Force =-0.4586281E-02[-0.125E-01, 0.331E-02]  d Energy =-0.4551111E-02-0.352E-04
 d Force =-0.2513335E-02[-0.305E-01, 0.254E-01]  d Ewald  =-0.2714766E-02 0.201E-03

 Steepest descent step on ions:
 trial-energy change:    0.004551  1 .order    0.004586   -0.003306    0.012478
  (g-gl).g = 0.331E-02      g.g   = 0.331E-02  gl.gl    = 0.000E+00
 g(Force)  = 0.331E-02   g(Stress)= 0.000E+00 ortho     = 0.000E+00
 gamma     =   0.00000
 trial     =   1.00000
 opt step  =   0.21166  (harmonic =   0.20943) maximal distance =0.00116788
 next E    =   -36.875167   (d E  =  -0.00035)

 FEWALD executed in parallel

[...]

 eigenvalue-minimisations  : 13288
 total energy-change (2. order) : 0.5536022E-05  (-0.9646090E-05)
 number of electron      16.0000000 magnetization
 augmentation part        0.3826946 magnetization

 Broyden mixing:
  rms(total) = 0.47126E-03    rms(broyden)= 0.47122E-03
  rms(prec ) = 0.56692E-03
  weight for this iteration     100.00

 eigenvalues of (default mixing * dielectric matrix)
  average eigenvalue GAMMA=   1.7757
  1.2006  2.4565  1.6699

[...]

----------------------------------------- Iteration    3(   5)  ---------------------------------------

 BZINTS: Fermi energy:  3.983167; 16.000000 electrons
         Band energy: -82.036164;  BLOECHL correction: -0.000014

 eigenvalue-minimisations  : 12832
 total energy-change (2. order) :-0.2004473E-06  (-0.2324097E-06)
 number of electron      16.0000000 magnetization
 augmentation part        0.3826946 magnetization

 Free energy of the ion-electron system (eV)
  alpha Z        PSCENC =        33.96912098
  Ewald energy   TEWEN  =      -408.97699919
  -Hartree energ DENC   =      -220.82409011
  -exchange      EXHF   =         0.00000000
  -V(xc)+E(xc)   XCENC  =        57.55385774
  PAW double counting   =       277.07346671     -282.23550485
  entropy T*S    EENTRO =         0.00000000
  eigenvalues    EBANDS =       -82.03616354
  atomic energy  EATOM  =       588.60115103
  free energy    TOTEN  =       -36.87516122 eV

  energy without entropy =      -36.87516122  energy(sigma->0) =      -36.87516122

 average (electrostatic) potential at core
  the test charge radii are     0.6991
  (the norm of the test charge is              1.0000)
       1 -51.4359       2 -51.4359       3 -51.4237       4 -51.4237

 E-fermi :   3.9832     XC(G=0):  -9.7429     alpha+bet :-10.4631

[...]

 k-point   455 :       0.5000    0.5000    0.5000
  band No.  band energies     occupation
      1     -10.2362      2.00000
      2     -10.2362      2.00000
      3      -9.2134      2.00000
      4      -9.2134      2.00000
      5      -2.4294      2.00000
      6      -2.4294      2.00000
      7       1.6531      2.00000
      8       1.6531      2.00000
      9       5.6496      0.00000
     10       5.6496      0.00000
     11      11.2854      0.00000
     12      11.2854      0.00000

 soft charge-density along one line, spin component           1
         0         1         2         3         4         5         6         7         8         9
 total charge-density along one line

------------------------ aborting loop because EDIFF is reached ----------------------------------------

  FORCE on cell =-STRESS in cart. coord.  units (eV):
  Direction    XX          YY          ZZ          XY          YZ          ZX
  Alpha Z    33.96912    33.96912    33.96912
  Ewald     128.53896   128.34555  -665.86203    -0.16749     0.00000    -0.00000
  Hartree   198.23209   198.17122  -175.57895    -0.05271    -0.00000    -0.00000
  E(xc)     -58.37140   -58.37040   -60.61304     0.00087    -0.00000     0.00000
  Local    -526.86021  -526.63414   607.62999     0.19579     0.00000     0.00000
  n-local   -14.42860   -13.63504   -12.79267    -0.18258     0.00536    -0.00529
  augment    -1.54166    -1.54147    -1.41379     0.00016     0.00000     0.00000
  Kinetic   243.78814   236.16787   274.89100     1.90564    -0.07925     0.07588
  Fock        0.00000     0.00000     0.00000     0.00000     0.00000     0.00000
  Total       0.02030    -0.22117     0.22963    -0.20912     0.00000    -0.00000
  in kB       0.84763    -9.23320     9.58642    -8.73025     0.00000    -0.00000

 VOLUME and BASIS-vectors are now :
  energy-cutoff  :      600.00
  volume of cell :       38.38
      direct lattice vectors                 reciprocal lattice vectors
     2.466141111  0.002939519  0.000000000     0.405213711  0.233306695  0.000000000
    -1.230524857  2.137210611  0.000000000    -0.000557331  0.467578715  0.000000000
     0.000000000  0.000000000  7.276530905     0.000000000  0.000000000  0.137428125

  length of vectors
     2.466142863  2.466142863  7.276530905     0.467579047  0.467579047  0.137428125

 FORCES acting on ions
    electron-ion (+dipol)            ewald-force                    non-local-force                 convergence-correction
   0.462E+00 -.267E+00 0.398E-11   -.460E+00 0.265E+00 -.190E-13   0.192E-02 -.111E-02 0.000E+00   0.713E-03 -.412E-03 -.386E-12
   -.462E+00 0.266E+00 0.322E-12   0.460E+00 -.265E+00 0.190E-13   -.192E-02 0.111E-02 0.000E+00   -.713E-03 0.412E-03 0.403E-12
   -.464E+00 0.268E+00 -.143E-11   0.460E+00 -.266E+00 -.190E-13   -.253E-02 0.146E-02 0.108E-18   -.710E-03 0.410E-03 -.385E-12
   0.464E+00 -.268E+00 -.385E-11   -.460E+00 0.266E+00 0.190E-13   0.253E-02 -.146E-02 -.325E-18   0.710E-03 -.410E-03 0.405E-12
   -.679E-05 -.118E-04 -.978E-12   0.000E+00 0.405E-14 0.000E+00   -.555E-16 0.000E+00 -.217E-18   0.139E-09 0.241E-09 0.371E-13

 POSITION                                       TOTAL-FORCE (eV/Angst)
      2.46430      0.00400      1.81913         0.004660     -0.002690      0.000000
     -1.22869      2.13615      5.45740        -0.004660      0.002690     -0.000000
      0.00021      1.42665      1.81913        -0.006757      0.003901      0.000000
      1.23541      0.71350      5.45740         0.006757     -0.003901      0.000000
    total drift:                               -0.000007     -0.000012     -0.000000

  FREE ENERGIE OF THE ION-ELECTRON SYSTEM (eV)
  free  energy   TOTEN  =       -36.87516122 eV

  energy  without entropy=      -36.87516122  energy(sigma->0) =      -36.87516122

 d Force = 0.4984033E-02[ 0.131E-03, 0.984E-02]  d Energy = 0.4895421E-02 0.886E-04
 d Force = 0.6726781E-02[-0.106E-01, 0.240E-01]  d Ewald  = 0.6825375E-02-0.986E-04

 reached required accuracy - stopping structural energy minimisation
 BZINTS: Fermi energy:  3.983167; 16.000000 electrons
         Band energy: -82.036164;  BLOECHL correction: -0.000014