 vasp.5.3.5 31Mar14 (build Nov 02 2014 15:17:37) complex

 executed on        ion-Intel-MKL date 2016.08.24  08:01:53

 INCAR:
 POTCAR:   PAW_PBE C 08Apr2002

 POTCAR:   PAW_PBE C 08Apr2002
   VRHFIN =C: s2p2

   TITEL  = PAW_PBE C 08Apr2002
   POMASS =   12.011; ZVAL   =    4.000    mass and valenz
   ENMAX  =  400.000; ENMIN  =  300.000 eV
   QCUT   =   -5.516; QGAM   =   11.032    optimization parameters

   Description
     l     E      TYP  RCUT    TYP  RCUT
     0   .000     23  1.200
     0   .000     23  1.200
     1   .000     23  1.500
     1  2.500     23  1.500
     2   .000      7  1.500

 PAW_PBE C 08Apr2002                    :

 POSCAR: C
  positions in direct lattice
 exchange correlation table for  LEXCH =        8
   RHO(1)=    0.500       N(1)  =     2000
   RHO(2)=  100.500       N(2)  =     4000

 ion  position               nearest neighbor table
   1  0.500  0.000  0.125-  12 1.18  16 1.18  20 1.42  18 1.42  19 1.42  25 1.85  29 1.85  26 1.85
                            30 1.85  27 1.85  31 1.85
   2  1.000  0.000  0.125-  11 1.18  15 1.18  19 1.42  20 1.42  17 1.42  26 1.85  30 1.85  29 1.85
                            25 1.85  28 1.85  32 1.85
   3  0.500  0.500  0.125-  10 1.18  14 1.18  18 1.42  20 1.42  17 1.43  27 1.85  31 1.85  28 1.85
                            32 1.85  25 1.85  29 1.85
   4  1.000  0.500  0.125-   9 1.18  13 1.18  17 1.42  19 1.42  18 1.42  28 1.85  32 1.85  31 1.85
                            27 1.85  26 1.85  30 1.85
   5  0.500  0.000  0.625-  12 1.18  16 1.18  24 1.42  22 1.42  23 1.42  25 1.85  29 1.85  26 1.85
                            30 1.85  27 1.85  31 1.85
   6  1.000  0.000  0.625-  11 1.18  15 1.18  23 1.42  21 1.42  24 1.42  26 1.85  30 1.85  29 1.85
                            25 1.85  28 1.85  32 1.85
   7  0.500  0.500  0.625-  10 1.18  14 1.18  22 1.42  24 1.42  21 1.42  27 1.85  31 1.85  28 1.85
                            32 1.85  25 1.85  29 1.85
   8  1.000  0.500  0.625-   9 1.18  13 1.18  21 1.42  23 1.42  22 1.42  28 1.85  32 1.85  31 1.85
                            27 1.85  26 1.85  30 1.85
   9  0.000  0.500  0.375-   4 1.18   8 1.18  28 1.42  27 1.42  26 1.42  17 1.85  21 1.85  23 1.85
                            19 1.85  18 1.85  22 1.85
  10  0.500  0.500  0.375-   3 1.18   7 1.18  27 1.42  28 1.42  25 1.42  22 1.85  18 1.85  24 1.85
                            20 1.85  21 1.85  17 1.86
  11  0.000  1.000  0.375-   2 1.18   6 1.18  26 1.42  25 1.42  28 1.42  23 1.85  19 1.85  21 1.85
                            24 1.85  20 1.85  17 1.85
  12  0.500  1.000  0.375-   1 1.18   5 1.18  25 1.42  26 1.42  27 1.42  24 1.85  20 1.85  18 1.85
                            22 1.85  19 1.85  23 1.85
  13  0.000  0.500  0.875-   4 1.18   8 1.18  32 1.42  31 1.42  30 1.42  17 1.84  21 1.85  23 1.85
                            19 1.85  18 1.85  22 1.85
  14  0.500  0.500  0.875-   3 1.18   7 1.18  31 1.42  32 1.42  29 1.42  22 1.85  18 1.85  24 1.85
                            20 1.85  21 1.85  17 1.85
  15  0.000  1.000  0.875-   2 1.18   6 1.18  30 1.42  29 1.42  32 1.42  17 1.84  23 1.85  19 1.85
                            21 1.85  24 1.85  20 1.85
  16  0.500  1.000  0.875-   1 1.18   5 1.18  29 1.42  30 1.42  31 1.42  24 1.85  20 1.85  18 1.85
                            22 1.85  19 1.85  23 1.85
  17  0.165  0.333  0.124-   4 1.42   2 1.42   3 1.43  30 1.84  13 1.84  31 1.84  15 1.84  26 1.85
                             9 1.85  14 1.85  29 1.85  27 1.85  11 1.85  10 1.86  25 1.86
  18  0.667  0.333  0.125-   3 1.42   1 1.42   4 1.42  28 1.85  32 1.85  29 1.85  25 1.85  10 1.85
                            14 1.85  12 1.85  16 1.85   9 1.85  13 1.85  30 1.85  26 1.85
  19  0.167  0.833  0.125-   2 1.42   4 1.42   1 1.42  25 1.85  29 1.85  28 1.85  32 1.85  11 1.85
                            15 1.85  13 1.85   9 1.85  12 1.85  16 1.85  31 1.85  27 1.85
  20  0.667  0.833  0.125-   1 1.42   3 1.42   2 1.42  26 1.85  30 1.85  27 1.85  31 1.85  12 1.85
                            16 1.85  14 1.85  10 1.85  15 1.85  11 1.85  28 1.85  32 1.85
  21  0.167  0.333  0.625-   8 1.42   6 1.42   7 1.42  27 1.85  31 1.85  30 1.85  26 1.85   9 1.85
                            13 1.85  11 1.85  15 1.85  14 1.85  10 1.85  25 1.85  29 1.85
  22  0.667  0.333  0.625-   7 1.42   5 1.42   8 1.42  28 1.85  32 1.85  29 1.85  25 1.85  10 1.85
                            14 1.85  12 1.85  16 1.85   9 1.85  13 1.85  30 1.85  26 1.85
  23  0.167  0.833  0.625-   6 1.42   8 1.42   5 1.42  25 1.85  29 1.85  28 1.85  32 1.85  11 1.85
                            15 1.85  13 1.85   9 1.85  12 1.85  16 1.85  31 1.85  27 1.85
  24  0.667  0.833  0.625-   5 1.42   7 1.42   6 1.42  26 1.85  30 1.85  27 1.85  31 1.85  12 1.85
                            16 1.85  14 1.85  10 1.85  15 1.85  11 1.85  28 1.85  32 1.85
  25  0.333  0.167  0.375-  12 1.42  11 1.42  10 1.42  19 1.85  23 1.85  22 1.85  18 1.85   5 1.85
                             1 1.85   6 1.85   2 1.85   7 1.85   3 1.85  21 1.85  17 1.86
  26  0.833  0.167  0.375-  11 1.42  12 1.42   9 1.42  17 1.85  20 1.85  24 1.85  21 1.85   6 1.85
                             2 1.85   1 1.85   5 1.85   8 1.85   4 1.85  22 1.85  18 1.85
  27  0.333  0.667  0.375-  10 1.42   9 1.42  12 1.42  21 1.85  20 1.85  24 1.85   3 1.85   7 1.85
                             4 1.85   8 1.85   1 1.85   5 1.85  23 1.85  19 1.85  17 1.85
  28  0.833  0.667  0.375-   9 1.42  10 1.42  11 1.42  18 1.85  22 1.85  19 1.85  23 1.85   8 1.85
                             4 1.85   3 1.85   7 1.85   6 1.85   2 1.85  20 1.85  24 1.85
  29  0.333  0.167  0.875-  16 1.42  15 1.42  14 1.42  19 1.85  23 1.85  22 1.85  18 1.85   5 1.85
                             1 1.85   6 1.85   2 1.85   7 1.85   3 1.85  21 1.85  17 1.85
  30  0.833  0.167  0.875-  15 1.42  16 1.42  13 1.42  17 1.84  20 1.85  24 1.85  21 1.85   6 1.85
                             2 1.85   1 1.85   5 1.85   8 1.85   4 1.85  22 1.85  18 1.85
  31  0.333  0.667  0.875-  14 1.42  13 1.42  16 1.42  17 1.84  21 1.85  20 1.85  24 1.85   7 1.85
                             3 1.85   8 1.85   4 1.85   5 1.85   1 1.85  23 1.85  19 1.85
  32  0.833  0.667  0.875-  13 1.42  14 1.42  15 1.42  18 1.85  22 1.85  19 1.85  23 1.85   8 1.85
                             4 1.85   3 1.85   7 1.85   6 1.85   2 1.85  20 1.85  24 1.85

  LATTYP: Found a base centered orthorhombic cell.
 ALAT       =     4.9339256766
 B/A-ratio  =     1.7322311103
 C/A-ratio  =     0.9542137281

  Lattice vectors:

 A1 = (   4.9343108848,  -0.0002224000,   0.0000000000)
 A2 = (  -2.4673480464,   4.2731273763,   0.0000000000)
 A3 = (   0.0000000000,   0.0000000000,   4.7080196140)

Analysis of symmetry for initial positions (statically):
 Subroutine PRICEL returns:
 Original cell was already a primitive cell.

 Routine SETGRP: Setting up the symmetry group for a
 base centered orthorhombic supercell.

 Subroutine GETGRP returns: Found  1 space group operations
 (whereof  1 operations were pure point group operations)
 out of a pool of  8 trial point group operations.

The static configuration has the point symmetry C_1 .

Analysis of symmetry for dynamics (positions and initial velocities):
 Subroutine PRICEL returns:
 Original cell was already a primitive cell.

 Routine SETGRP: Setting up the symmetry group for a
 base centered orthorhombic supercell.

 Subroutine GETGRP returns: Found  1 space group operations
 (whereof  1 operations were pure point group operations)
 out of a pool of  8 trial point group operations.

The dynamic configuration has the point symmetry C_1 .

 KPOINTS: B4C B11C-CBC

Automatic generation of k-mesh.
Space group operators:
 irot       det(A)        alpha          n_x          n_y          n_z        tau_x        tau_y        tau_z
    1     1.000000     0.000001     1.000000     0.000000     0.000000     0.000000     0.000000     0.000000

 Subroutine IBZKPT returns following result:

 Found    163 irreducible k-points:

 Following reciprocal coordinates:
            Coordinates               Weight
  0.000000  0.000000  0.000000      1.000000
  0.111111  0.000000  0.000000      2.000000
  0.222222  0.000000  0.000000      2.000000
  0.333333  0.000000  0.000000      2.000000
  0.444444  0.000000  0.000000      2.000000
  0.000000  0.111111  0.000000      2.000000
  0.111111  0.111111  0.000000      2.000000
  0.222222  0.111111  0.000000      2.000000
  0.333333  0.111111  0.000000      2.000000
  0.444444  0.111111  0.000000      2.000000
 -0.444444  0.111111  0.000000      2.000000
 -0.333333  0.111111  0.000000      2.000000
 -0.222222  0.111111  0.000000      2.000000
 -0.111111  0.111111  0.000000      2.000000
 -0.000000  0.222222  0.000000      2.000000
  0.111111  0.222222  0.000000      2.000000
  0.222222  0.222222  0.000000      2.000000
  0.333333  0.222222  0.000000      2.000000
  0.444444  0.222222  0.000000      2.000000
 -0.444444  0.222222  0.000000      2.000000
 -0.333333  0.222222  0.000000      2.000000
 -0.222222  0.222222  0.000000      2.000000
 -0.111111  0.222222  0.000000      2.000000
 -0.000000  0.333333  0.000000      2.000000
  0.111111  0.333333  0.000000      2.000000
  0.222222  0.333333  0.000000      2.000000
  0.333333  0.333333  0.000000      2.000000
  0.444444  0.333333  0.000000      2.000000
 -0.444444  0.333333  0.000000      2.000000
 -0.333333  0.333333  0.000000      2.000000
 -0.222222  0.333333  0.000000      2.000000
 -0.111111  0.333333  0.000000      2.000000
 -0.000000  0.444444  0.000000      2.000000
  0.111111  0.444444  0.000000      2.000000
  0.222222  0.444444  0.000000      2.000000
  0.333333  0.444444  0.000000      2.000000
  0.444444  0.444444  0.000000      2.000000
 -0.444444  0.444444  0.000000      2.000000
 -0.333333  0.444444  0.000000      2.000000
 -0.222222  0.444444  0.000000      2.000000
 -0.111111  0.444444  0.000000      2.000000
  0.000000  0.000000  0.250000      2.000000
  0.111111  0.000000  0.250000      2.000000
  0.222222  0.000000  0.250000      2.000000
  0.333333  0.000000  0.250000      2.000000
  0.444444  0.000000  0.250000      2.000000
 -0.444444 -0.000000  0.250000      2.000000
 -0.333333 -0.000000  0.250000      2.000000
 -0.222222 -0.000000  0.250000      2.000000
 -0.111111 -0.000000  0.250000      2.000000
  0.000000  0.111111  0.250000      2.000000
  0.111111  0.111111  0.250000      2.000000
  0.222222  0.111111  0.250000      2.000000
  0.333333  0.111111  0.250000      2.000000
  0.444444  0.111111  0.250000      2.000000
 -0.444444  0.111111  0.250000      2.000000
 -0.333333  0.111111  0.250000      2.000000
 -0.222222  0.111111  0.250000      2.000000
 -0.111111  0.111111  0.250000      2.000000
 -0.000000  0.222222  0.250000      2.000000
[...]
  0.333333  0.333333  0.500000      2.000000
  0.444444  0.333333  0.500000      2.000000
 -0.444444  0.333333  0.500000      2.000000
 -0.333333  0.333333  0.500000      2.000000
 -0.222222  0.333333  0.500000      2.000000
 -0.111111  0.333333  0.500000      2.000000
 -0.000000  0.444444  0.500000      2.000000
  0.111111  0.444444  0.500000      2.000000
  0.222222  0.444444  0.500000      2.000000
[...]

[...]

 eigenvalue-minimisations  : 18012
 total energy-change (2. order) : 0.1535464E-06  (-0.5509964E-07)
 number of electron     127.9999984 magnetization
 augmentation part        3.4459523 magnetization

 Free energy of the ion-electron system (eV)
  alpha Z        PSCENC =       840.52869203
  Ewald energy   TEWEN  =     -6958.56821458
  -Hartree energ DENC   =      -204.06367088
  -exchange      EXHF   =         0.00000000
  -V(xc)+E(xc)   XCENC  =       539.00759220
  PAW double counting   =      3258.07959540    -3304.58563299
  entropy T*S    EENTRO =         0.00000000
  eigenvalues    EBANDS =      1097.44267716
  atomic energy  EATOM  =      4708.80920826
  free energy    TOTEN  =       -23.34975340 eV

  energy without entropy =      -23.34975340  energy(sigma->0) =      -23.34975340

 average (electrostatic) potential at core
  the test charge radii are     0.6991
  (the norm of the test charge is              1.0000)
       1 -37.3693       2 -37.3683       3 -37.3692       4 -37.3680       5 -37.3693
       6 -37.3686       7 -37.3700       8 -37.3679       9 -37.3683      10 -37.3588
      11 -37.3631      12 -37.3663      13 -37.3781      14 -37.3683      15 -37.3727
      16 -37.3714      17 -35.6806      18 -35.6806      19 -35.6810      20 -35.6799
      21 -35.6785      22 -35.6787      23 -35.6783      24 -35.6784      25 -35.6738
      26 -35.6789      27 -35.6766      28 -35.6800      29 -35.6787      30 -35.6841
      31 -35.6817      32 -35.6778

 E-fermi :  22.3799     XC(G=0): -16.8355     alpha+bet :-32.3624

 k-point     1 :       0.0000    0.0000    0.0000
  band No.  band energies     occupation
      1     -11.0047      2.00000
      2      -6.1233      2.00000
      3      -6.1171      2.00000
      4      -5.6767      2.00000
      5      -5.6699      2.00000
      6      -5.6633      2.00000
      7      -3.9512      2.00000
      8      -3.9443      2.00000
      9      -3.9374      2.00000
     10      -1.3845      2.00000
     11      -1.3775      2.00000
     12      -1.3762      2.00000
     13      -1.3714      2.00000
     14      -1.3699      2.00000
     15      -1.3637      2.00000
     16       1.9425      2.00000
     17       1.9506      2.00000
     18       1.9529      2.00000
     19       1.9561      2.00000
     20       1.9581      2.00000
     21       1.9662      2.00000
     22       3.0876      2.00000
     23       3.9188      2.00000
     24       3.9228      2.00000
     25       3.9277      2.00000
     26       5.8135      2.00000
     27       5.8185      2.00000
     28       5.8229      2.00000
     29       8.6211      2.00000
     30       8.6404      2.00000
     31       9.9403      2.00000
     32       9.9495      2.00000
     33       9.9538      2.00000
     34       9.9544      2.00000
     35       9.9579      2.00000
     36       9.9675      2.00000
     37      13.6951      2.00000
     38      13.7090      2.00000
     39      13.7136      2.00000
     40      13.7263      2.00000
     41      14.1902      2.00000
     42      14.1913      2.00000
     43      14.1959      2.00000
     44      14.6100      2.00000
     45      14.6196      2.00000
     46      16.2522      2.00000
     47      17.3697      2.00000
     48      17.3815      2.00000
     49      17.3916      2.00000
     50      17.5465      2.00000
     51      17.5512      2.00000
     52      17.5535      2.00000
     53      17.5545      2.00000
     54      17.5601      2.00000
     55      17.5634      2.00000
     56      19.7782      2.00000
     57      19.7848      2.00000
     58      19.7925      2.00000
     59      20.0892      2.00000
     60      20.0958      2.00000
[...]
     70      23.9181      0.00000
     71      23.9220      0.00000
     72      23.9416      0.00000
     73      24.8982      0.00000
     74      24.9044      0.00000
     75      24.9164      0.00000
     76      26.4776      0.00000
     77      26.4903      0.00000
     78      27.5473      0.00000
     79      29.4277      0.00000
     80      29.4361      0.00000
     81      29.4375      0.00000
     82      29.4380      0.00000
     83      29.4388      0.00000
     84      29.4463      0.00000

[...]

 k-point   163 :      -0.1111    0.4444    0.5000
  band No.  band energies     occupation
      1      -8.7729      2.00000
      2      -8.7630      2.00000
      3      -7.4257      2.00000
      4      -7.4158      2.00000
      5      -6.1174      2.00000
      6      -6.1075      2.00000
      7      -4.3524      2.00000
      8      -4.3429      2.00000
      9      -0.9753      2.00000
     10      -0.9643      2.00000
     11       0.1872      2.00000
     12       0.1918      2.00000
     13       0.7138      2.00000
     14       0.7246      2.00000
     15       1.2744      2.00000
     16       1.2782      2.00000
     17       1.7135      2.00000
     18       1.7251      2.00000
     19       2.2011      2.00000
     20       2.2097      2.00000
     21       2.3472      2.00000
     22       2.3527      2.00000
     23       3.4031      2.00000
     24       3.4103      2.00000
     25       3.5375      2.00000
     26       3.5478      2.00000
     27       5.6183      2.00000
     28       5.6283      2.00000
     29       6.0905      2.00000
     30       6.1009      2.00000
     31       7.4857      2.00000
     32       7.4956      2.00000
     33      10.0650      2.00000
     34      10.0672      2.00000
     35      10.9555      2.00000
     36      10.9573      2.00000
     37      12.0207      2.00000
     38      12.0233      2.00000
     39      12.8736      2.00000
     40      12.8771      2.00000
     41      14.3806      2.00000
     42      14.3832      2.00000
     43      14.4957      2.00000
     44      14.5008      2.00000
     45      16.3718      2.00000
     46      16.3803      2.00000
     47      16.7396      2.00000
     48      16.7462      2.00000
     49      16.8294      2.00000
     50      16.8353      2.00000
     51      17.5846      2.00000
     52      17.5967      2.00000
     53      18.9635      2.00000
     54      18.9723      2.00000
     55      20.5886      2.00000
     56      20.5968      2.00000
     57      20.7556      2.00000
     58      20.7605      2.00000
     59      21.0318      2.00000
     60      21.0372      2.00000
[...]
     70      24.1565      0.00000
     71      24.4001      0.00000
     72      24.4103      0.00000
     73      26.2408      0.00000
     74      26.2499      0.00000
     75      27.0767      0.00000
     76      27.0872      0.00000
     77      27.3933      0.00000
     78      27.3965      0.00000
     79      27.7842      0.00000
     80      27.7877      0.00000
     81      27.8383      0.00000
     82      27.8468      0.00000
     83      28.5711      0.00000
     84      28.5786      0.00000

 soft charge-density along one line, spin component           1
         0         1         2         3         4         5         6         7         8         9
 total charge-density along one line

------------------------ aborting loop because EDIFF is reached ----------------------------------------

         DFTD3 V3.0 Rev 1
 IVDW         = 11
 DF pbe
 parameters
 VDW_S6       =    1.0000
 VDW_S8       =    0.7220
 VDW_SR       =    1.2170
 rs18     =    1.0000
 alpha6   =   14.0000
 alpha8   =   16.0000
 k1-k3    =   16.0000    1.3333   -4.0000
 VDW_RADIUS   =   50.2022 A
 VDW_CNRADIUS =   21.1671 A
 Edisp (eV)   -6.50340

 E6    (eV) :    -3.8887
 E8    (eV) :    -2.6147
 % E8        : 40.20

  FORCE on cell =-STRESS in cart. coord.  units (eV):
  Direction    XX          YY          ZZ          XY          YZ          ZX
  Alpha Z   840.52869   840.52869   840.52869
  Ewald   -2551.87266 -2552.26745 -1854.45616    -1.97603    -0.00006    -0.00106
  Hartree    37.29908    37.23076   129.53852    -0.34474     0.00030    -0.00242
  E(xc)    -541.44967  -541.45009  -541.17098    -0.00247    -0.00003     0.00014
  Local     193.34032   193.74503  -330.30292     2.00497    -0.00757     0.02258
  n-local   -98.82484   -98.81363  -117.11531     0.02363    -0.00773     0.02278
  augment   -15.03568   -15.03516   -19.97718     0.00270     0.00012    -0.00017
  Kinetic  2504.54341  2504.47084  2677.10005    -0.09522     0.02896    -0.13289
  Fock        0.00000     0.00000     0.00000     0.00000     0.00000     0.00000
  vdW        -6.30320    -6.30333    -6.84744    -0.00015     0.00000     0.00001
  Total     362.22547   362.10567   777.29727    -0.38731     0.01399    -0.09102
  in kB    5846.42334  5844.48966 12545.80159    -6.25131     0.22587    -1.46915

 VOLUME and BASIS-vectors are now :
  energy-cutoff  :      600.00
  volume of cell :       99.27
      direct lattice vectors                 reciprocal lattice vectors
     4.934310885 -0.000222400  0.000000000     0.202667819  0.117022500  0.000000000
    -2.467348046  4.273127376  0.000000000     0.000010548  0.234026730  0.000000000
     0.000000000  0.000000000  4.708019614     0.000000000  0.000000000  0.212403533

  length of vectors
     4.934310890  4.934310890  4.708019614     0.234026730  0.234026730  0.212403533

 FORCES acting on ions
    electron-ion (+dipol)            ewald-force                    non-local-force                 convergence-correction
   0.183E+00 -.389E-03 -.143E+00   -.166E+00 0.106E-02 0.109E+00   -.444E-02 0.272E-03 0.306E-01   0.596E-03 0.105E-04 -.155E-03
   -.461E+00 -.165E-01 -.490E+00   0.486E+00 0.108E-01 0.512E+00   -.259E-01 -.459E-02 -.191E-01   -.458E-03 0.549E-04 -.183E-03
   0.731E+00 0.686E+00 -.488E+00   -.810E+00 -.742E+00 0.505E+00   0.430E-02 0.100E-01 -.150E-01   0.399E-04 0.307E-03 -.156E-03
   0.725E+00 -.695E+00 -.490E+00   -.809E+00 0.754E+00 0.520E+00   -.789E-02 -.128E-01 -.249E-01   0.158E-03 -.363E-03 -.162E-03
   0.308E-01 -.311E-02 0.658E-01   -.587E-01 0.180E-02 -.963E-01   0.324E-01 0.224E-02 0.704E-02   0.456E-03 -.491E-04 0.219E-03
   -.787E-01 -.288E-02 0.207E+00   0.674E-01 0.172E-02 -.226E+00   0.777E-02 -.166E-02 0.406E-01   -.557E-03 -.399E-04 0.284E-03
   0.242E-01 0.612E-01 0.202E+00   -.200E-01 -.480E-01 -.224E+00   -.175E-02 -.967E-02 0.390E-01   -.854E-04 0.328E-03 0.278E-03
   0.376E-01 -.730E-01 0.214E+00   -.202E-01 0.530E-01 -.227E+00   -.111E-01 0.106E-01 0.421E-01   -.332E-04 -.274E-03 0.244E-03
   -.139E+00 -.500E-01 -.135E+00   0.136E+00 0.358E-01 0.173E+00   0.304E-01 0.686E-02 -.198E-01   0.431E-04 -.262E-03 0.429E-03
   0.345E+00 0.329E+00 0.376E+00   -.439E+00 -.369E+00 -.425E+00   0.279E-01 -.159E-01 -.185E-01   -.778E-04 0.283E-03 0.390E-03
   -.217E+00 -.273E+00 0.123E+00   0.199E+00 0.330E+00 -.128E+00   0.437E-01 -.310E-02 -.196E-01   -.465E-03 0.210E-04 0.437E-03
   0.635E-01 0.447E-02 0.391E-01   -.980E-01 -.274E-02 -.663E-02   0.102E-01 -.374E-02 -.249E-01   0.414E-03 -.360E-04 0.394E-03
   0.346E+00 -.328E+00 0.375E+00   -.444E+00 0.373E+00 -.430E+00   0.257E-01 0.722E-02 0.797E-02   0.820E-04 -.280E-03 -.510E-03
   -.129E+00 0.586E-01 -.124E+00   0.131E+00 -.421E-01 0.177E+00   0.308E-01 -.132E-01 -.259E-02   -.373E-04 0.256E-03 -.511E-03
   -.216E+00 0.282E+00 0.125E+00   0.203E+00 -.334E+00 -.124E+00   0.404E-01 -.707E-02 0.217E-02   -.421E-03 0.360E-04 -.539E-03
   0.649E-01 0.631E-02 0.429E-01   -.990E-01 -.272E-02 -.625E-02   0.859E-02 -.378E-02 0.647E-02   0.444E-03 -.318E-05 -.458E-03
   -.232E+01 0.295E-01 -.865E+00   0.271E+01 -.311E-01 0.111E+01   -.239E+00 0.625E-02 -.287E+00   -.619E-04 -.274E-03 -.163E-03
   0.437E+00 0.155E-01 -.139E+00   -.435E+00 -.148E-01 0.142E+00   -.380E-01 0.152E-02 -.480E-01   -.433E-04 -.208E-03 -.178E-03
   0.119E-01 -.228E+00 -.139E+00   -.138E-01 0.229E+00 0.142E+00   -.234E-01 0.117E-01 -.503E-01   -.982E-04 0.247E-03 -.159E-03
   0.184E-01 0.250E+00 -.140E+00   -.137E-01 -.258E+00 0.142E+00   -.237E-01 -.392E-02 -.456E-01   0.503E-04 0.193E-03 -.176E-03
   -.201E+00 0.172E-01 0.448E+00   0.194E+00 -.149E-01 -.523E+00   0.457E-02 0.896E-02 0.246E-01   0.346E-04 -.276E-03 0.184E-03
   0.987E-01 0.643E-02 0.764E-01   -.983E-01 -.148E-01 -.117E+00   -.323E-02 0.528E-02 0.700E-01   0.204E-04 -.147E-03 0.209E-03
   0.214E-02 -.402E-01 0.754E-01   0.211E-01 0.541E-01 -.117E+00   0.120E-01 0.146E-01 0.722E-01   -.112E-03 0.233E-03 0.174E-03
   -.638E-03 0.672E-01 0.797E-01   0.211E-01 -.838E-01 -.117E+00   0.805E-02 -.159E-02 0.644E-01   0.147E-03 0.209E-03 0.213E-03
   0.414E+00 -.351E+00 0.371E+00   -.468E+00 0.382E+00 -.425E+00   0.839E-01 -.446E-01 0.684E-01   -.129E-03 0.548E-04 0.511E-03
   -.713E-01 0.588E-01 -.141E+00   0.107E+00 -.230E-01 0.173E+00   -.104E-01 -.228E-01 -.177E-01   0.161E-03 -.455E-03 0.464E-03
   -.174E+00 0.274E+00 0.117E+00   0.170E+00 -.318E+00 -.128E+00   0.176E-01 0.432E-01 0.252E-01   0.486E-03 0.145E-03 0.495E-03
   0.123E+00 -.112E-01 0.612E-01   -.127E+00 0.155E-01 -.664E-02   -.128E-01 -.103E-01 -.536E-01   -.473E-03 0.323E-03 0.575E-03
   -.740E-01 -.784E-01 -.142E+00   0.102E+00 0.548E-01 0.177E+00   -.219E-02 0.124E-01 -.192E-01   -.148E-03 0.324E-04 -.530E-03
   0.418E+00 0.333E+00 0.381E+00   -.474E+00 -.360E+00 -.430E+00   0.800E-01 0.474E-01 0.684E-01   0.140E-03 -.515E-03 -.496E-03
   -.177E+00 -.297E+00 0.118E+00   0.173E+00 0.347E+00 -.124E+00   0.110E-01 -.467E-01 0.229E-01   0.492E-03 0.121E-03 -.521E-03
   0.119E+00 -.161E-01 0.525E-01   -.128E+00 0.155E-01 -.623E-02   -.113E-01 0.212E-03 -.411E-01   -.521E-03 0.317E-03 -.606E-03
   -.643E-01 0.168E-01 0.115E+00   0.241E-13 0.338E-13 -.838E-14   0.642E-01 -.168E-01 -.115E+00   0.439E-04 -.951E-05 -.329E-05

 POSITION                                       TOTAL-FORCE (eV/Angst)
      2.46715     -0.00011      0.58850         0.012877      0.000951     -0.003681
      4.93431     -0.00022      0.58850        -0.001802     -0.010265      0.002862
      1.23348      2.13645      0.58850        -0.075364     -0.045284      0.001957
      3.70064      2.13634      0.58850        -0.091632      0.046413      0.004258
      2.46715     -0.00011      2.94251         0.004980      0.000877     -0.023194
      4.93431     -0.00022      2.94251        -0.004138     -0.002870      0.022165
      1.23348      2.13645      2.94251         0.002401      0.003841      0.017179
      3.70064      2.13634      2.94251         0.006337     -0.009600      0.029834
     -1.23367      2.13656      1.76551         0.026891     -0.007604      0.018625
      1.23348      2.13645      1.76551        -0.066743     -0.055640     -0.067762
     -2.46735      4.27313      1.76551         0.025224      0.053704     -0.024100
     -0.00019      4.27302      1.76551        -0.023879     -0.002049      0.007972
     -1.23367      2.13656      4.11952        -0.072693      0.052114     -0.047773
      1.23348      2.13645      4.11952         0.033082      0.003567      0.050449
     -2.46735      4.27313      4.11952         0.026550     -0.058896      0.002292
     -0.00019      4.27302      4.11952        -0.025094     -0.000188      0.042632
     -0.00743      1.42441      0.58160         0.158386      0.004377     -0.040274
      2.46696      1.42430      0.58850        -0.036036      0.001967     -0.044477
     -1.23387      3.56098      0.58850        -0.025337      0.012500     -0.046840
      1.23329      3.56086      0.58850        -0.018930     -0.012063     -0.042988
     -0.00019      1.42441      2.94251        -0.002744      0.010983     -0.049435
      2.46696      1.42430      2.94251        -0.002956     -0.003276      0.029991
     -1.23387      3.56098      2.94251         0.035085      0.028909      0.031115
      1.23329      3.56086      2.94251         0.028684     -0.018075      0.027661
      1.23367      0.71204      1.76551         0.028918     -0.013859      0.015408
      3.70083      0.71193      1.76551         0.025139      0.012438      0.014898
     -0.00000      2.84860      1.76551         0.014507      0.000222      0.014644
      2.46715      2.84849      1.76551        -0.017986     -0.005734      0.001527
      1.23367      0.71204      4.11952         0.025339     -0.011144      0.015787
      3.70083      0.71193      4.11952         0.024041      0.020168      0.018308
     -0.00000      2.84860      4.11952         0.008161      0.003527      0.016381
      2.46715      2.84849      4.11952        -0.021268     -0.000012      0.004578
    total drift:                               -0.000003     -0.000002     -0.000008

  FREE ENERGIE OF THE ION-ELECTRON SYSTEM (eV)
  free  energy   TOTEN  =       -29.85314884 eV

  energy  without entropy=      -29.85314884  energy(sigma->0) =      -29.85314884

 BZINTS: Fermi energy: 22.379949;128.000000 electrons
         Band energy:1097.442677;  BLOECHL correction: -0.283933