 vasp.5.3.5 31Mar14 (build Nov 02 2014 15:17:37) complex

 executed on        ion-Intel-MKL date 2016.08.23  23:19:37

 INCAR:
 POTCAR:   PAW_PBE C 08Apr2002
 POTCAR:   PAW_PBE C 08Apr2002
   VRHFIN =C: s2p2

   TITEL  = PAW_PBE C 08Apr2002
   POMASS =   12.011; ZVAL   =    4.000    mass and valenz
   ENMAX  =  400.000; ENMIN  =  300.000 eV
   QCUT   =   -5.516; QGAM   =   11.032    optimization parameters

   Description
     l     E      TYP  RCUT    TYP  RCUT
     0   .000     23  1.200
     0   .000     23  1.200
     1   .000     23  1.500
     1  2.500     23  1.500
     2   .000      7  1.500

 PAW_PBE C 08Apr2002                    :

 POSCAR: CIF file
  positions in direct lattice
  velocities in cartesian coordinates
 exchange correlation table for  LEXCH =        8
   RHO(1)=    0.500       N(1)  =     2000
   RHO(2)=  100.500       N(2)  =     4000

 ion  position               nearest neighbor table
   1  1.000  0.000  0.250-   3 1.42   3 1.42   3 1.42   2 1.85   2 1.85
   2  0.000  1.000  0.750-   4 1.42   4 1.42   4 1.42   1 1.85   1 1.85
   3  0.333  0.667  0.250-   1 1.42   1 1.42   1 1.42
   4  0.667  0.333  0.750-   2 1.42   2 1.42   2 1.42

  LATTYP: Found a base centered orthorhombic cell.
 ALAT       =     2.4669628383
 B/A-ratio  =     1.7322311103
 C/A-ratio  =     1.4994787167

  Lattice vectors:

 A1 = (   2.4671554424,  -0.0001112000,   0.0000000000)
 A2 = (  -1.2336740232,   2.1365636881,   0.0000000000)
 A3 = (   0.0000000000,   0.0000000000,   3.6991582710)

Analysis of symmetry for initial positions (statically):
 Subroutine PRICEL returns:
 Original cell was already a primitive cell.

 Routine SETGRP: Setting up the symmetry group for a
 base centered orthorhombic supercell.

 Subroutine GETGRP returns: Found  8 space group operations
 (whereof  4 operations were pure point group operations)
 out of a pool of  8 trial point group operations.

The static configuration has the point symmetry C_2h.
 The point group associated with its full space group is D_2h.

Analysis of symmetry for dynamics (positions and initial velocities):
 Subroutine PRICEL returns:
 Original cell was already a primitive cell.

 Routine SETGRP: Setting up the symmetry group for a
 base centered orthorhombic supercell.

 Subroutine GETGRP returns: Found  8 space group operations
 (whereof  4 operations were pure point group operations)
 out of a pool of  8 trial point group operations.

The dynamic configuration has the point symmetry C_2h.
 The point group associated with its full space group is D_2h.

 KPOINTS: B4C B11C-CBC

Automatic generation of k-mesh.
Space group operators:
 irot       det(A)        alpha          n_x          n_y          n_z        tau_x        tau_y        tau_z
    1     1.000000     0.000001     1.000000     0.000000     0.000000     0.000000     0.000000     0.000000
    2    -1.000000     0.000001     1.000000     0.000000     0.000000     0.000000     0.000000     0.000000
    3     1.000000   180.000000    -0.500000    -0.866025     0.000000     0.000000     0.000000     0.000000
    4    -1.000000   180.000000    -0.500000    -0.866025     0.000000     0.000000     0.000000     0.000000
    5     1.000000   180.000000     0.000000     0.000000     1.000000     0.000000     0.000000     0.500000
    6    -1.000000   180.000000     0.000000     0.000000     1.000000     0.000000     0.000000     0.500000
    7     1.000000   180.000000     0.866025    -0.500000     0.000000     0.000000     0.000000     0.500000
    8    -1.000000   180.000000     0.866025    -0.500000     0.000000     0.000000     0.000000     0.500000

 Subroutine IBZKPT returns following result:

 Found    455 irreducible k-points:

 Following reciprocal coordinates:
            Coordinates               Weight
  0.000000  0.000000  0.000000      1.000000
  0.055556  0.000000  0.000000      4.000000
  0.111111  0.000000  0.000000      4.000000
  0.166667  0.000000  0.000000      4.000000
  0.222222  0.000000  0.000000      4.000000
  0.277778  0.000000  0.000000      4.000000
  0.333333  0.000000  0.000000      4.000000
  0.388889  0.000000  0.000000      4.000000
  0.444444  0.000000  0.000000      4.000000
  0.500000  0.000000  0.000000      2.000000
  0.055556  0.055556  0.000000      2.000000
  0.111111  0.055556  0.000000      4.000000
  0.166667  0.055556  0.000000      4.000000
  0.222222  0.055556  0.000000      4.000000
  0.277778  0.055556  0.000000      4.000000
  0.333333  0.055556  0.000000      4.000000
  0.388889  0.055556  0.000000      4.000000
  0.444444  0.055556  0.000000      4.000000
  0.500000  0.055556  0.000000      4.000000
 -0.444444  0.055556  0.000000      4.000000
 -0.388889  0.055556  0.000000      4.000000
 -0.333333  0.055556  0.000000      4.000000
 -0.277778  0.055556  0.000000      4.000000
 -0.222222  0.055556  0.000000      4.000000
 -0.166667  0.055556  0.000000      4.000000
 -0.111111  0.055556  0.000000      4.000000
 -0.055556  0.055556  0.000000      2.000000
  0.111111  0.111111  0.000000      2.000000
  0.166667  0.111111  0.000000      4.000000
  0.222222  0.111111  0.000000      4.000000
  0.277778  0.111111  0.000000      4.000000
  0.333333  0.111111  0.000000      4.000000
  0.388889  0.111111  0.000000      4.000000
  0.444444  0.111111  0.000000      4.000000
  0.500000  0.111111  0.000000      4.000000
 -0.444444  0.111111  0.000000      4.000000
 -0.388889  0.111111  0.000000      4.000000
 -0.333333  0.111111  0.000000      4.000000
 -0.277778  0.111111  0.000000      4.000000
 -0.222222  0.111111  0.000000      4.000000
 -0.166667  0.111111  0.000000      4.000000
 -0.111111  0.111111  0.000000      2.000000
  0.166667  0.166667  0.000000      2.000000
  0.222222  0.166667  0.000000      4.000000
  0.277778  0.166667  0.000000      4.000000
  0.333333  0.166667  0.000000      4.000000
  0.388889  0.166667  0.000000      4.000000
  0.444444  0.166667  0.000000      4.000000
  0.500000  0.166667  0.000000      4.000000
 -0.444444  0.166667  0.000000      4.000000
 -0.388889  0.166667  0.000000      4.000000
 -0.333333  0.166667  0.000000      4.000000
 -0.277778  0.166667  0.000000      4.000000
 -0.222222  0.166667  0.000000      4.000000
 -0.166667  0.166667  0.000000      2.000000
  0.222222  0.222222  0.000000      2.000000
  0.277778  0.222222  0.000000      4.000000
  0.333333  0.222222  0.000000      4.000000
  0.388889  0.222222  0.000000      4.000000
  0.444444  0.222222  0.000000      4.000000
[...]
  0.388889  0.333333  0.500000      4.000000
  0.444444  0.333333  0.500000      4.000000
  0.500000  0.333333  0.500000      4.000000
 -0.444444  0.333333  0.500000      4.000000
 -0.388889  0.333333  0.500000      4.000000
 -0.333333  0.333333  0.500000      2.000000
  0.388889  0.388889  0.500000      2.000000
  0.444444  0.388889  0.500000      4.000000
  0.500000  0.388889  0.500000      4.000000
 -0.444444  0.388889  0.500000      4.000000
 -0.388889  0.388889  0.500000      2.000000
  0.444444  0.444444  0.500000      2.000000
  0.500000  0.444444  0.500000      4.000000
 -0.444444  0.444444  0.500000      2.000000
  0.500000  0.500000  0.500000      1.000000

 Following cartesian coordinates:
            Coordinates               Weight
  0.000000  0.000000  0.000000      1.000000
  0.022519  0.013002  0.000000      4.000000
  0.045037  0.026005  0.000000      4.000000
  0.067556  0.039007  0.000000      4.000000
  0.090075  0.052010  0.000000      4.000000
  0.112593  0.065012  0.000000      4.000000
  0.135112  0.078015  0.000000      4.000000
  0.157631  0.091017  0.000000      4.000000
  0.180149  0.104020  0.000000      4.000000
  0.202668  0.117022  0.000000      2.000000
  0.022520  0.039005  0.000000      2.000000
  0.045038  0.052008  0.000000      4.000000
  0.067557  0.065010  0.000000      4.000000
  0.090076  0.078013  0.000000      4.000000
  0.112594  0.091015  0.000000      4.000000
  0.135113  0.104018  0.000000      4.000000
  0.157632  0.117020  0.000000      4.000000
  0.180150  0.130023  0.000000      4.000000
  0.202669  0.143025  0.000000      4.000000
 -0.180148 -0.078017  0.000000      4.000000
 -0.157629 -0.065015  0.000000      4.000000
 -0.135111 -0.052012  0.000000      4.000000
 -0.112592 -0.039010  0.000000      4.000000
 -0.090073 -0.026007  0.000000      4.000000
 -0.067555 -0.013005  0.000000      4.000000
 -0.045036 -0.000002  0.000000      4.000000
 -0.022517  0.013000  0.000000      2.000000
  0.045040  0.078011  0.000000      2.000000
  0.067558  0.091013  0.000000      4.000000
  0.090077  0.104016  0.000000      4.000000
  0.112596  0.117018  0.000000      4.000000
  0.135114  0.130021  0.000000      4.000000
  0.157633  0.143023  0.000000      4.000000
  0.180152  0.156026  0.000000      4.000000
  0.202670  0.169028  0.000000      4.000000
 -0.180147 -0.052014  0.000000      4.000000
 -0.157628 -0.039012  0.000000      4.000000
 -0.135110 -0.026009  0.000000      4.000000
 -0.112591 -0.013007  0.000000      4.000000
 -0.090072 -0.000004  0.000000      4.000000
 -0.067554  0.012998  0.000000      4.000000
 -0.045035  0.026001  0.000000      2.000000
  0.067559  0.117016  0.000000      2.000000
  0.090078  0.130019  0.000000      4.000000
  0.112597  0.143021  0.000000      4.000000
  0.135115  0.156024  0.000000      4.000000
  0.157634  0.169026  0.000000      4.000000
  0.180153  0.182029  0.000000      4.000000
  0.202671  0.195031  0.000000      4.000000
 -0.180146 -0.026011  0.000000      4.000000
 -0.157627 -0.013009  0.000000      4.000000
 -0.135108 -0.000006  0.000000      4.000000
 -0.112590  0.012996  0.000000      4.000000
 -0.090071  0.025999  0.000000      4.000000
 -0.067552  0.039001  0.000000      2.000000
  0.090079  0.156022  0.000000      2.000000
  0.112598  0.169024  0.000000      4.000000
  0.135117  0.182027  0.000000      4.000000
  0.157635  0.195029  0.000000      4.000000
  0.180154  0.208032  0.000000      4.000000
[...]
  0.157638  0.247035  0.135166      4.000000
  0.180156  0.260038  0.135166      4.000000
  0.202675  0.273040  0.135166      4.000000
 -0.180142  0.051998  0.135166      4.000000
 -0.157623  0.065000  0.135166      4.000000
 -0.135105  0.078003  0.135166      2.000000
  0.157639  0.273038  0.135166      2.000000
  0.180157  0.286041  0.135166      4.000000
  0.202676  0.299043  0.135166      4.000000
 -0.180141  0.078001  0.135166      4.000000
 -0.157622  0.091003  0.135166      2.000000
  0.180159  0.312044  0.135166      2.000000
  0.202677  0.325046  0.135166      4.000000
 -0.180140  0.104004  0.135166      2.000000
  0.202678  0.351049  0.135166      1.000000

 TETIRR: Found   3888 inequivalent tetrahedra from    15552

 I would recommend the setting:
   dimension x,y,z NGX =    20 NGY =   20 NGZ =   30
 SYSTEM =  graphite
 POSCAR =  CIF file

 Startparameter for this run:
   NWRITE =      2    write-flag & timer
   PREC   = accura    normal or accurate (medium, high low for compatibility)
   ISTART =      0    job   : 0-new  1-cont  2-samecut
   ICHARG =      2    charge: 1-file 2-atom 10-const
   ISPIN  =      1    spin polarized calculation?
   LNONCOLLINEAR =      F non collinear calculations
[...]
 k-point 29 :   0.1667 0.1111 0.0000  plane waves:     648
 k-point 30 :   0.2222 0.1111 0.0000  plane waves:     649
 k-point 31 :   0.2778 0.1111 0.0000  plane waves:     648
 k-point 32 :   0.3333 0.1111 0.0000  plane waves:     651
 k-point 33 :   0.3889 0.1111 0.0000  plane waves:     653
 k-point 34 :   0.4444 0.1111 0.0000  plane waves:     651
 k-point 35 :   0.5000 0.1111 0.0000  plane waves:     655
 k-point 36 :  -0.4444 0.1111 0.0000  plane waves:     651
 k-point 37 :  -0.3889 0.1111 0.0000  plane waves:     648
 k-point 38 :  -0.3333 0.1111 0.0000  plane waves:     649
 k-point 39 :  -0.2778 0.1111 0.0000  plane waves:     648
 k-point 40 :  -0.2222 0.1111 0.0000  plane waves:     645
 k-point 41 :  -0.1667 0.1111 0.0000  plane waves:     642
 k-point 42 :  -0.1111 0.1111 0.0000  plane waves:     641
 k-point 43 :   0.1667 0.1667 0.0000  plane waves:     651
 k-point 44 :   0.2222 0.1667 0.0000  plane waves:     650
 k-point 45 :   0.2778 0.1667 0.0000  plane waves:     651
 k-point 46 :   0.3333 0.1667 0.0000  plane waves:     659
 k-point 47 :   0.3889 0.1667 0.0000  plane waves:     661
 k-point 48 :   0.4444 0.1667 0.0000  plane waves:     661
 k-point 49 :   0.5000 0.1667 0.0000  plane waves:     659
 k-point 50 :  -0.4444 0.1667 0.0000  plane waves:     651
 k-point 51 :  -0.3889 0.1667 0.0000  plane waves:     650
 k-point 52 :  -0.3333 0.1667 0.0000  plane waves:     651
 k-point 53 :  -0.2778 0.1667 0.0000  plane waves:     648
 k-point 54 :  -0.2222 0.1667 0.0000  plane waves:     645
 k-point 55 :  -0.1667 0.1667 0.0000  plane waves:     649
 k-point 56 :   0.2222 0.2222 0.0000  plane waves:     659
 k-point 57 :   0.2778 0.2222 0.0000  plane waves:     652
 k-point 58 :   0.3333 0.2222 0.0000  plane waves:     662
 k-point 59 :   0.3889 0.2222 0.0000  plane waves:     657
 k-point 60 :   0.4444 0.2222 0.0000  plane waves:     662
[...]
 k-point 85 :   0.5000 0.3889 0.0000  plane waves:     655
 k-point 86 :  -0.4444 0.3889 0.0000  plane waves:     658
 k-point 87 :  -0.3889 0.3889 0.0000  plane waves:     658
 k-point 88 :   0.4444 0.4444 0.0000  plane waves:     651
 k-point 89 :   0.5000 0.4444 0.0000  plane waves:     656
 k-point 90 :  -0.4444 0.4444 0.0000  plane waves:     652
 k-point 91 :   0.5000 0.5000 0.0000  plane waves:     656
 k-point 92 :   0.0000 0.0000 0.1250  plane waves:     639
 k-point 93 :   0.0556 0.0000 0.1250  plane waves:     635
 k-point 94 :   0.1111 0.0000 0.1250  plane waves:     640
 k-point 95 :   0.1667 0.0000 0.1250  plane waves:     647
 k-point 96 :   0.2222 0.0000 0.1250  plane waves:     645
 k-point 97 :   0.2778 0.0000 0.1250  plane waves:     643
 k-point 98 :   0.3333 0.0000 0.1250  plane waves:     653
 k-point 99 :   0.3889 0.0000 0.1250  plane waves:     655
 k-point ** :   0.4444 0.0000 0.1250  plane waves:     655
 k-point ** :   0.5000 0.0000 0.1250  plane waves:     652
 k-point ** :   0.0556 0.0556 0.1250  plane waves:     644
 k-point ** :   0.1111 0.0556 0.1250  plane waves:     644
 k-point ** :   0.1667 0.0556 0.1250  plane waves:     649
 k-point ** :   0.2222 0.0556 0.1250  plane waves:     646
 k-point ** :   0.2778 0.0556 0.1250  plane waves:     648
 k-point ** :   0.3333 0.0556 0.1250  plane waves:     650
 k-point ** :   0.3889 0.0556 0.1250  plane waves:     655
 k-point ** :   0.4444 0.0556 0.1250  plane waves:     656
 k-point ** :   0.5000 0.0556 0.1250  plane waves:     656
 k-point ** :  -0.4444 0.0556 0.1250  plane waves:     655
 k-point ** :  -0.3889 0.0556 0.1250  plane waves:     650
 k-point ** :  -0.3333 0.0556 0.1250  plane waves:     648
 k-point ** :  -0.2778 0.0556 0.1250  plane waves:     646
 k-point ** :  -0.2222 0.0556 0.1250  plane waves:     649
 k-point ** :  -0.1667 0.0556 0.1250  plane waves:     644
 k-point ** :  -0.1111 0.0556 0.1250  plane waves:     644
 k-point ** :  -0.0556 0.0556 0.1250  plane waves:     635
 k-point ** :   0.1111 0.1111 0.1250  plane waves:     642
 k-point ** :   0.1667 0.1111 0.1250  plane waves:     647
 k-point ** :   0.2222 0.1111 0.1250  plane waves:     649
 k-point ** :   0.2778 0.1111 0.1250  plane waves:     647
 k-point ** :   0.3333 0.1111 0.1250  plane waves:     652
 k-point ** :   0.3889 0.1111 0.1250  plane waves:     658
 k-point ** :   0.4444 0.1111 0.1250  plane waves:     663
 k-point ** :   0.5000 0.1111 0.1250  plane waves:     658
 k-point ** :  -0.4444 0.1111 0.1250  plane waves:     652
 k-point ** :  -0.3889 0.1111 0.1250  plane waves:     648
 k-point ** :  -0.3333 0.1111 0.1250  plane waves:     649
 k-point ** :  -0.2778 0.1111 0.1250  plane waves:     647
 k-point ** :  -0.2222 0.1111 0.1250  plane waves:     642
 k-point ** :  -0.1667 0.1111 0.1250  plane waves:     644
 k-point ** :  -0.1111 0.1111 0.1250  plane waves:     640
 k-point ** :   0.1667 0.1667 0.1250  plane waves:     649
 k-point ** :   0.2222 0.1667 0.1250  plane waves:     648
 k-point ** :   0.2778 0.1667 0.1250  plane waves:     651
 k-point ** :   0.3333 0.1667 0.1250  plane waves:     656
 k-point ** :   0.3889 0.1667 0.1250  plane waves:     659
 k-point ** :   0.4444 0.1667 0.1250  plane waves:     659
 k-point ** :   0.5000 0.1667 0.1250  plane waves:     656
 k-point ** :  -0.4444 0.1667 0.1250  plane waves:     651
 k-point ** :  -0.3889 0.1667 0.1250  plane waves:     648
 k-point ** :  -0.3333 0.1667 0.1250  plane waves:     649
 k-point ** :  -0.2778 0.1667 0.1250  plane waves:     647
 k-point ** :  -0.2222 0.1667 0.1250  plane waves:     649
 k-point ** :  -0.1667 0.1667 0.1250  plane waves:     647
 k-point ** :   0.2222 0.2222 0.1250  plane waves:     649
 k-point ** :   0.2778 0.2222 0.1250  plane waves:     656
 k-point ** :   0.3333 0.2222 0.1250  plane waves:     657
 k-point ** :   0.3889 0.2222 0.1250  plane waves:     660
 k-point ** :   0.4444 0.2222 0.1250  plane waves:     657
 k-point ** :   0.5000 0.2222 0.1250  plane waves:     656
 k-point ** :  -0.4444 0.2222 0.1250  plane waves:     649
 k-point ** :  -0.3889 0.2222 0.1250  plane waves:     648
 k-point ** :  -0.3333 0.2222 0.1250  plane waves:     649
 k-point ** :  -0.2778 0.2222 0.1250  plane waves:     646
 k-point ** :  -0.2222 0.2222 0.1250  plane waves:     645
 k-point ** :   0.2778 0.2778 0.1250  plane waves:     662
 k-point ** :   0.3333 0.2778 0.1250  plane waves:     670
[...]
 k-point ** :   0.3889 0.3333 0.5000  plane waves:     652
 k-point ** :   0.4444 0.3333 0.5000  plane waves:     652
 k-point ** :   0.5000 0.3333 0.5000  plane waves:     650
 k-point ** :  -0.4444 0.3333 0.5000  plane waves:     646
 k-point ** :  -0.3889 0.3333 0.5000  plane waves:     644
 k-point ** :  -0.3333 0.3333 0.5000  plane waves:     658
 k-point ** :   0.3889 0.3889 0.5000  plane waves:     656
 k-point ** :   0.4444 0.3889 0.5000  plane waves:     652
 k-point ** :   0.5000 0.3889 0.5000  plane waves:     648
 k-point ** :  -0.4444 0.3889 0.5000  plane waves:     644
 k-point ** :  -0.3889 0.3889 0.5000  plane waves:     648
 k-point ** :   0.4444 0.4444 0.5000  plane waves:     646
 k-point ** :   0.5000 0.4444 0.5000  plane waves:     650
 k-point ** :  -0.4444 0.4444 0.5000  plane waves:     652
 k-point ** :   0.5000 0.5000 0.5000  plane waves:     644

 maximum and minimum number of plane-waves per node :       230      205

 maximum number of plane-waves:       672
 maximum index in each direction:
   IXMAX=    5   IYMAX=    4   IZMAX=    7
   IXMIN=   -5   IYMIN=   -5   IZMIN=   -7

 WARNING: aliasing errors must be expected set NGX to  22 to avoid them
 NGY is ok and might be reduce to  20
 NGZ is ok and might be reduce to  30
 aliasing errors are usually negligible using standard VASP settings
 and one can safely disregard these warnings

 parallel 3D FFT for wavefunctions:
    minimum data exchange during FFTs selected (reduces bandwidth)
 parallel 3D FFT for charge:
    minimum data exchange during FFTs selected (reduces bandwidth)

 Broyden mixing: mesh for mixing (old mesh)
   NGX =  9   NGY =  9   NGZ = 15
  (NGX  = 40   NGY  = 40   NGZ  = 60)
  gives a total of   1215 points

 initial charge density was supplied:
 charge density of overlapping atoms calculated
 number of electron      16.0000000 magnetization
 keeping initial charge density in first step

 Maximum index for augmentation-charges         1341 (set IRDMAX)

 First call to EWALD:  gamma=   0.659
 Maximum number of real-space cells 3x 3x 2
 Maximum number of reciprocal cells 3x 3x 4

 FEWALD executed in parallel

----------------------------------------- Iteration    1(   1)  ---------------------------------------

 BZINTS: Fermi energy: 21.552965; 16.000000 electrons
         Band energy:  93.448730;  BLOECHL correction: -0.528763

 eigenvalue-minimisations  : 10920
 total energy-change (2. order) : 0.3920990E+02  (-0.9682849E+03)
 number of electron      16.0000000 magnetization
 augmentation part       16.0000000 magnetization

 Free energy of the ion-electron system (eV)
  alpha Z        PSCENC =        66.86023681
  Ewald energy   TEWEN  =      -738.58472164
  -Hartree energ DENC   =       -25.52583627
  -exchange      EXHF   =         0.00000000
  -V(xc)+E(xc)   XCENC  =        59.01225991
  PAW double counting   =       151.32577238     -155.92769107
  entropy T*S    EENTRO =         0.00000000
  eigenvalues    EBANDS =        93.44873002
  atomic energy  EATOM  =       588.60115103
  free energy    TOTEN  =        39.20990118 eV

  energy without entropy =       39.20990118  energy(sigma->0) =       39.20990118

[...]

 eigenvalue-minimisations  : 14736
 total energy-change (2. order) :-0.6815410E+02  (-0.6146102E+02)
 number of electron      16.0000000 magnetization
 augmentation part       16.0000000 magnetization

[...]

 Broyden mixing:
  rms(total) = 0.76957E+00    rms(broyden)= 0.76948E+00
  rms(prec ) = 0.16772E+01
  weight for this iteration     100.00

[...]

 eigenvalues of (default mixing * dielectric matrix)
  average eigenvalue GAMMA=   2.0933
  2.0933

[...]

 eigenvalue-minimisations  : 11944
 total energy-change (2. order) : 0.4163653E+00  (-0.8674388E-01)
 number of electron      16.0000002 magnetization
 augmentation part        0.3975206 magnetization

[...]

 Broyden mixing:
  rms(total) = 0.82038E-03    rms(broyden)= 0.82032E-03
  rms(prec ) = 0.15175E-02
  weight for this iteration     100.00

 eigenvalues of (default mixing * dielectric matrix)
  average eigenvalue GAMMA=   1.8915
  2.7928  2.5335  2.0544  1.1284  0.9485

[...]

----------------------------------------- Iteration    1(  11)  ---------------------------------------

 BZINTS: Fermi energy: 13.723286; 16.000000 electrons
         Band energy:  39.469263;  BLOECHL correction: -0.045047

 eigenvalue-minimisations  : 12116
 total energy-change (2. order) :-0.7926435E-06  (-0.3566471E-06)
 number of electron      16.0000002 magnetization
 augmentation part        0.3968968 magnetization

 Free energy of the ion-electron system (eV)
  alpha Z        PSCENC =        66.86023681
  Ewald energy   TEWEN  =      -738.58472164
  -Hartree energ DENC   =       -41.38604665
  -exchange      EXHF   =         0.00000000
  -V(xc)+E(xc)   XCENC  =        60.58702618
  PAW double counting   =       294.42412394     -299.70264853
  entropy T*S    EENTRO =         0.00000000
  eigenvalues    EBANDS =        39.46926315
  atomic energy  EATOM  =       588.60115103
  free energy    TOTEN  =       -29.73161570 eV

  energy without entropy =      -29.73161570  energy(sigma->0) =      -29.73161570

 average (electrostatic) potential at core
  the test charge radii are     0.6991
  (the norm of the test charge is              1.0000)
       1 -43.7879       2 -43.7879       3 -43.0170       4 -43.0170

 E-fermi :  13.7233     XC(G=0): -14.1658     alpha+bet :-20.5942

 k-point     1 :       0.0000    0.0000    0.0000
  band No.  band energies     occupation
      1     -11.5159      2.00000
      2      -3.8453      2.00000
      3      -1.4074      2.00000
      4       7.6001      2.00000
      5       7.6053      2.00000
      6       9.2528      2.00000
      7       9.2568      2.00000
      8      15.3693      0.00000
      9      19.0042      0.00000
     10      19.0063      0.00000
     11      19.6121      0.00000
     12      20.5798      0.00000

[...]

 k-point   455 :       0.5000    0.5000    0.5000
  band No.  band energies     occupation
      1      -3.7897      2.00000
      2      -3.7897      2.00000
      3      -2.5642      2.00000
      4      -2.5642      2.00000
      5       4.9746      2.00000
      6       4.9746      2.00000
      7      11.7863      2.00000
      8      11.7863      2.00000
      9      13.4773      1.43262
     10      13.4773      0.79605
     11      20.0450      0.00000
     12      20.0450      0.00000

 soft charge-density along one line, spin component           1
         0         1         2         3         4         5         6         7         8         9
 total charge-density along one line

------------------------ aborting loop because EDIFF is reached ----------------------------------------

         DFTD3 V3.0 Rev 1
 IVDW         = 11
 DF pbe
 parameters
 VDW_S6       =    1.0000
 VDW_S8       =    0.7220
 VDW_SR       =    1.2170
 rs18     =    1.0000
 alpha6   =   14.0000
 alpha8   =   16.0000
 k1-k3    =   16.0000    1.3333   -4.0000
 VDW_RADIUS   =   50.2022 A
 VDW_CNRADIUS =   21.1671 A
 Edisp (eV)   -0.51331

 E6    (eV) :    -0.3152
 E8    (eV) :    -0.1981
 % E8        : 38.59

  FORCE on cell =-STRESS in cart. coord.  units (eV):
  Direction    XX          YY          ZZ          XY          YZ          ZX
  Alpha Z    66.86024    66.86024    66.86024
  Ewald    -194.40300  -194.45344  -349.72907    -0.04368     0.00000     0.00000
  Hartree    20.45194    20.44561     0.48671    -0.00548    -0.00000    -0.00000
  E(xc)     -61.22990   -61.23010   -61.70336    -0.00017    -0.00000     0.00000
  Local     -64.55854   -64.51090    91.49449     0.04125    -0.00000    -0.00000
  n-local   -13.53079   -12.49454   -16.81238    -0.30116    -0.13511     0.23086
  augment    -1.63949    -1.63941    -1.50150     0.00007    -0.00000    -0.00000
  Kinetic   252.86194   249.06618   305.31869     1.11306     1.14731    -1.87333
  Fock        0.00000     0.00000     0.00000     0.00000     0.00000     0.00000
  vdW        -0.52154    -0.52154    -0.55944    -0.00000     0.00000     0.00000
  Total       2.90447     2.90847    33.85437     0.00346     0.00000    -0.00000
  in kB     238.65700   238.98526  2781.77108     0.28428     0.00000    -0.00000

 VOLUME and BASIS-vectors are now :
  energy-cutoff  :      600.00
  volume of cell :       19.50
      direct lattice vectors                 reciprocal lattice vectors
     2.467155442 -0.000111200  0.000000000     0.405335638  0.234045000  0.000000000
    -1.233674023  2.136563688  0.000000000     0.000021096  0.468053460  0.000000000
     0.000000000  0.000000000  3.699158271     0.000000000  0.000000000  0.270331769

  length of vectors
     2.467155445  2.467155445  3.699158271     0.468053460  0.468053460  0.270331769

 FORCES acting on ions
    electron-ion (+dipol)            ewald-force                    non-local-force                 convergence-correction
   -.490E-03 0.270E-03 0.135E-12   -.320E-02 0.183E-02 -.739E-14   -.181E-02 0.105E-02 0.139E-16   0.226E-05 -.131E-05 0.148E-13
   0.479E-03 -.290E-03 0.360E-13   0.318E-02 -.185E-02 0.693E-14   0.181E-02 -.105E-02 -.139E-16   -.226E-05 0.131E-05 -.158E-13
   -.191E-02 0.111E-02 0.230E-12   0.644E-02 -.370E-02 -.809E-14   0.190E-02 -.110E-02 0.278E-16   -.549E-05 0.317E-05 0.170E-13
   0.192E-02 -.110E-02 0.285E-12   -.643E-02 0.373E-02 0.855E-14   -.190E-02 0.110E-02 -.278E-16   0.549E-05 -.317E-05 -.194E-13
   -.770E-05 -.133E-04 0.685E-12   0.375E-15 -.510E-14 0.000E+00   0.555E-16 0.000E+00 0.000E+00   0.219E-09 0.379E-09 -.347E-14

 POSITION                                       TOTAL-FORCE (eV/Angst)
      2.46715     -0.00011      0.92479        -0.005479      0.003163      0.000000
     -1.23367      2.13656      2.77437         0.005479     -0.003163     -0.000000
     -0.00019      1.42441      0.92479         0.006416     -0.003704     -0.000000
      1.23367      0.71204      2.77437        -0.006416      0.003704     -0.000000
    total drift:                               -0.000008     -0.000013      0.000000

  FREE ENERGIE OF THE ION-ELECTRON SYSTEM (eV)
  free  energy   TOTEN  =       -30.24492767 eV

  energy  without entropy=      -30.24492767  energy(sigma->0) =      -30.24492767

 reached required accuracy - stopping structural energy minimisation
 BZINTS: Fermi energy: 13.723286; 16.000000 electrons
         Band energy:  39.469263;  BLOECHL correction: -0.045047