 vasp.5.3.5 31Mar14 (build Nov 02 2014 15:17:37) complex

 executed on        ion-Intel-MKL date 2016.10.19  19:39:24

 INCAR:
 POTCAR:   PAW_PBE C 08Apr2002
 POTCAR:   PAW_PBE C 08Apr2002
   VRHFIN =C: s2p2

   TITEL  = PAW_PBE C 08Apr2002
   POMASS =   12.011; ZVAL   =    4.000    mass and valenz
   ENMAX  =  400.000; ENMIN  =  300.000 eV
   QCUT   =   -5.516; QGAM   =   11.032    optimization parameters

   Description
     l     E      TYP  RCUT    TYP  RCUT
     0   .000     23  1.200
     0   .000     23  1.200
     1   .000     23  1.500
     1  2.500     23  1.500
     2   .000      7  1.500

 PAW_PBE C 08Apr2002                    :

 POSCAR: CIF file
  positions in direct lattice
  velocities in cartesian coordinates
 exchange correlation table for  LEXCH =        8
   RHO(1)=    0.500       N(1)  =     2000
   RHO(2)=  100.500       N(2)  =     4000

 ion  position               nearest neighbor table
   1  0.999  0.001  0.250-   3 1.42   3 1.42   3 1.42
   2  0.001  0.999  0.750-   4 1.42   4 1.42   4 1.42
   3  0.333  0.667  0.250-   1 1.42   1 1.42   1 1.42
   4  0.667  0.333  0.750-   2 1.42   2 1.42   2 1.42

  LATTYP: Found a base centered orthorhombic cell.
 ALAT       =     2.4647750986
 B/A-ratio  =     1.7336081796
 C/A-ratio  =     2.8789536551

  Lattice vectors:

 A1 = (   2.4664372490,  -0.0009596430,   0.0000000000)
 A2 = (  -1.2340496996,   2.1355174929,   0.0000000000)
 A3 = (   0.0000000000,   0.0000000000,   7.0959732791)

Analysis of symmetry for initial positions (statically):
 Subroutine PRICEL returns:
 Original cell was already a primitive cell.

 Routine SETGRP: Setting up the symmetry group for a
 base centered orthorhombic supercell.

 Subroutine GETGRP returns: Found  8 space group operations
 (whereof  4 operations were pure point group operations)
 out of a pool of  8 trial point group operations.

The static configuration has the point symmetry C_2h.
 The point group associated with its full space group is D_2h.

Analysis of symmetry for dynamics (positions and initial velocities):
 Subroutine PRICEL returns:
 Original cell was already a primitive cell.

 Routine SETGRP: Setting up the symmetry group for a
 base centered orthorhombic supercell.

 Subroutine GETGRP returns: Found  8 space group operations
 (whereof  4 operations were pure point group operations)
 out of a pool of  8 trial point group operations.

The dynamic configuration has the point symmetry C_2h.
 The point group associated with its full space group is D_2h.

 KPOINTS: B4C B11C-CBC

Automatic generation of k-mesh.
Space group operators:
 irot       det(A)        alpha          n_x          n_y          n_z        tau_x        tau_y        tau_z
    1     1.000000     0.000001     1.000000     0.000000     0.000000     0.000000     0.000000     0.000000
    2    -1.000000     0.000001     1.000000     0.000000     0.000000     0.000000     0.000000     0.000000
    3     1.000000   180.000000    -0.500000    -0.866025     0.000000     0.000000     0.000000     0.000000
    4    -1.000000   180.000000    -0.500000    -0.866025     0.000000     0.000000     0.000000     0.000000
    5     1.000000   180.000000     0.000000     0.000000     1.000000     0.000000     0.000000     0.500000
    6    -1.000000   180.000000     0.000000     0.000000     1.000000     0.000000     0.000000     0.500000
    7     1.000000   180.000000     0.866025    -0.500000     0.000000     0.000000     0.000000     0.500000
    8    -1.000000   180.000000     0.866025    -0.500000     0.000000     0.000000     0.000000     0.500000

 Subroutine IBZKPT returns following result:

 Found    215 irreducible k-points:

 Following reciprocal coordinates:
            Coordinates               Weight
  0.000000  0.000000  0.000000      1.000000
  0.083333  0.000000  0.000000      4.000000
  0.166667  0.000000  0.000000      4.000000
  0.250000  0.000000  0.000000      4.000000
  0.333333  0.000000  0.000000      4.000000
  0.416667 -0.000000  0.000000      4.000000
  0.500000  0.000000  0.000000      2.000000
  0.083333  0.083333  0.000000      2.000000
  0.166667  0.083333  0.000000      4.000000
  0.250000  0.083333  0.000000      4.000000
  0.333333  0.083333  0.000000      4.000000
  0.416667  0.083333  0.000000      4.000000
  0.500000  0.083333  0.000000      4.000000
 -0.416667  0.083333  0.000000      4.000000
 -0.333333  0.083333  0.000000      4.000000
 -0.250000  0.083333  0.000000      4.000000
 -0.166667  0.083333  0.000000      4.000000
 -0.083333  0.083333  0.000000      2.000000
  0.166667  0.166667  0.000000      2.000000
  0.250000  0.166667  0.000000      4.000000
  0.333333  0.166667  0.000000      4.000000
  0.416667  0.166667  0.000000      4.000000
  0.500000  0.166667  0.000000      4.000000
 -0.416667  0.166667  0.000000      4.000000
 -0.333333  0.166667  0.000000      4.000000
 -0.250000  0.166667  0.000000      4.000000
 -0.166667  0.166667  0.000000      2.000000
  0.250000  0.250000  0.000000      2.000000
  0.333333  0.250000  0.000000      4.000000
  0.416667  0.250000  0.000000      4.000000
  0.500000  0.250000  0.000000      4.000000
 -0.416667  0.250000  0.000000      4.000000
 -0.333333  0.250000  0.000000      4.000000
 -0.250000  0.250000  0.000000      2.000000
  0.333333  0.333333  0.000000      2.000000
  0.416667  0.333333  0.000000      4.000000
  0.500000  0.333333  0.000000      4.000000
 -0.416667  0.333333  0.000000      4.000000
 -0.333333  0.333333  0.000000      2.000000
  0.416667  0.416667  0.000000      2.000000
  0.500000  0.416667  0.000000      4.000000
 -0.416667  0.416667  0.000000      2.000000
  0.500000  0.500000  0.000000      1.000000
  0.000000  0.000000  0.125000      2.000000
  0.083333  0.000000  0.125000      8.000000
  0.166667  0.000000  0.125000      8.000000
  0.250000  0.000000  0.125000      8.000000
  0.333333  0.000000  0.125000      8.000000
  0.416667 -0.000000  0.125000      8.000000
  0.500000  0.000000  0.125000      4.000000
  0.083333  0.083333  0.125000      4.000000
  0.166667  0.083333  0.125000      8.000000
  0.250000  0.083333  0.125000      8.000000
  0.333333  0.083333  0.125000      8.000000
  0.416667  0.083333  0.125000      8.000000
  0.500000  0.083333  0.125000      8.000000
 -0.416667  0.083333  0.125000      8.000000
 -0.333333  0.083333  0.125000      8.000000
 -0.250000  0.083333  0.125000      8.000000
 -0.166667  0.083333  0.125000      8.000000
[...]
  0.333333  0.250000  0.500000      4.000000
  0.416667  0.250000  0.500000      4.000000
  0.500000  0.250000  0.500000      4.000000
 -0.416667  0.250000  0.500000      4.000000
 -0.333333  0.250000  0.500000      4.000000
 -0.250000  0.250000  0.500000      2.000000
  0.333333  0.333333  0.500000      2.000000
  0.416667  0.333333  0.500000      4.000000
  0.500000  0.333333  0.500000      4.000000
 -0.416667  0.333333  0.500000      4.000000
 -0.333333  0.333333  0.500000      2.000000
  0.416667  0.416667  0.500000      2.000000
  0.500000  0.416667  0.500000      4.000000
 -0.416667  0.416667  0.500000      2.000000
  0.500000  0.500000  0.500000      1.000000

 Following cartesian coordinates:
            Coordinates               Weight
  0.000000  0.000000  0.000000      1.000000
  0.033795  0.019529  0.000000      4.000000
  0.067589  0.039058  0.000000      4.000000
  0.101384  0.058586  0.000000      4.000000
  0.135178  0.078115  0.000000      4.000000
  0.168973  0.097644  0.000000      4.000000
  0.202767  0.117173  0.000000      2.000000
  0.033810  0.058560  0.000000      2.000000
  0.067604  0.078089  0.000000      4.000000
  0.101399  0.097618  0.000000      4.000000
  0.135193  0.117147  0.000000      4.000000
  0.168988  0.136675  0.000000      4.000000
  0.202782  0.156204  0.000000      4.000000
 -0.168957 -0.058613  0.000000      4.000000
 -0.135163 -0.039084  0.000000      4.000000
 -0.101368 -0.019555  0.000000      4.000000
 -0.067574 -0.000026  0.000000      4.000000
 -0.033779  0.019503  0.000000      2.000000
  0.067619  0.117120  0.000000      2.000000
  0.101414  0.136649  0.000000      4.000000
  0.135208  0.156178  0.000000      4.000000
  0.169003  0.175707  0.000000      4.000000
  0.202798  0.195236  0.000000      4.000000
 -0.168942 -0.019581  0.000000      4.000000
 -0.135148 -0.000053  0.000000      4.000000
 -0.101353  0.019476  0.000000      4.000000
 -0.067559  0.039005  0.000000      2.000000
  0.101429  0.175680  0.000000      2.000000
  0.135224  0.195209  0.000000      4.000000
  0.169018  0.214738  0.000000      4.000000
  0.202813  0.234267  0.000000      4.000000
 -0.168927  0.019450  0.000000      4.000000
 -0.135133  0.038979  0.000000      4.000000
 -0.101338  0.058508  0.000000      2.000000
  0.135239  0.234241  0.000000      2.000000
  0.169033  0.253769  0.000000      4.000000
  0.202828  0.273298  0.000000      4.000000
 -0.168912  0.058481  0.000000      4.000000
 -0.135117  0.078010  0.000000      2.000000
  0.169049  0.292801  0.000000      2.000000
  0.202843  0.312329  0.000000      4.000000
 -0.168897  0.097513  0.000000      2.000000
  0.202858  0.351361  0.000000      1.000000
  0.000000  0.000000  0.017616      2.000000
  0.033795  0.019529  0.017616      8.000000
  0.067589  0.039058  0.017616      8.000000
  0.101384  0.058586  0.017616      8.000000
  0.135178  0.078115  0.017616      8.000000
  0.168973  0.097644  0.017616      8.000000
  0.202767  0.117173  0.017616      4.000000
  0.033810  0.058560  0.017616      4.000000
  0.067604  0.078089  0.017616      8.000000
  0.101399  0.097618  0.017616      8.000000
  0.135193  0.117147  0.017616      8.000000
  0.168988  0.136675  0.017616      8.000000
  0.202782  0.156204  0.017616      8.000000
 -0.168957 -0.058613  0.017616      8.000000
 -0.135163 -0.039084  0.017616      8.000000
 -0.101368 -0.019555  0.017616      8.000000
 -0.067574 -0.000026  0.017616      8.000000
[...]
  0.135224  0.195209  0.070462      4.000000
  0.169018  0.214738  0.070462      4.000000
  0.202813  0.234267  0.070462      4.000000
 -0.168927  0.019450  0.070462      4.000000
 -0.135133  0.038979  0.070462      4.000000
 -0.101338  0.058508  0.070462      2.000000
  0.135239  0.234241  0.070462      2.000000
  0.169033  0.253769  0.070462      4.000000
  0.202828  0.273298  0.070462      4.000000
 -0.168912  0.058481  0.070462      4.000000
 -0.135117  0.078010  0.070462      2.000000
  0.169049  0.292801  0.070462      2.000000
  0.202843  0.312329  0.070462      4.000000
 -0.168897  0.097513  0.070462      2.000000
  0.202858  0.351361  0.070462      1.000000

 TETIRR: Found   1728 inequivalent tetrahedra from     6912

 I would recommend the setting:
   dimension x,y,z NGX =    20 NGY =   20 NGZ =   57
 SYSTEM =  graphite
 POSCAR =  CIF file

 Startparameter for this run:
   NWRITE =      2    write-flag & timer
   PREC   = accura    normal or accurate (medium, high low for compatibility)
   ISTART =      0    job   : 0-new  1-cont  2-samecut
   ICHARG =      2    charge: 1-file 2-atom 10-const
   ISPIN  =      1    spin polarized calculation?
   LNONCOLLINEAR =      F non collinear calculations
   LSORBIT =      F    spin-orbit coupling
[...]
 k-point 31 :   0.5000 0.2500 0.0000  plane waves:    1254
 k-point 32 :  -0.4167 0.2500 0.0000  plane waves:    1240
 k-point 33 :  -0.3333 0.2500 0.0000  plane waves:    1237
 k-point 34 :  -0.2500 0.2500 0.0000  plane waves:    1241
 k-point 35 :   0.3333 0.3333 0.0000  plane waves:    1281
 k-point 36 :   0.4167 0.3333 0.0000  plane waves:    1271
 k-point 37 :   0.5000 0.3333 0.0000  plane waves:    1259
 k-point 38 :  -0.4167 0.3333 0.0000  plane waves:    1249
 k-point 39 :  -0.3333 0.3333 0.0000  plane waves:    1242
 k-point 40 :   0.4167 0.4167 0.0000  plane waves:    1269
 k-point 41 :   0.5000 0.4167 0.0000  plane waves:    1251
 k-point 42 :  -0.4167 0.4167 0.0000  plane waves:    1248
 k-point 43 :   0.5000 0.5000 0.0000  plane waves:    1248
 k-point 44 :   0.0000 0.0000 0.1250  plane waves:    1223
 k-point 45 :   0.0833 0.0000 0.1250  plane waves:    1227
 k-point 46 :   0.1667 0.0000 0.1250  plane waves:    1240
 k-point 47 :   0.2500 0.0000 0.1250  plane waves:    1246
 k-point 48 :   0.3333 0.0000 0.1250  plane waves:    1247
 k-point 49 :   0.4167-0.0000 0.1250  plane waves:    1246
 k-point 50 :   0.5000 0.0000 0.1250  plane waves:    1242
 k-point 51 :   0.0833 0.0833 0.1250  plane waves:    1226
 k-point 52 :   0.1667 0.0833 0.1250  plane waves:    1242
 k-point 53 :   0.2500 0.0833 0.1250  plane waves:    1238
 k-point 54 :   0.3333 0.0833 0.1250  plane waves:    1246
 k-point 55 :   0.4167 0.0833 0.1250  plane waves:    1253
 k-point 56 :   0.5000 0.0833 0.1250  plane waves:    1252
 k-point 57 :  -0.4167 0.0833 0.1250  plane waves:    1246
 k-point 58 :  -0.3333 0.0833 0.1250  plane waves:    1237
 k-point 59 :  -0.2500 0.0833 0.1250  plane waves:    1241
 k-point 60 :  -0.1667 0.0833 0.1250  plane waves:    1228
[...]
 k-point 85 :  -0.4167 0.4167 0.1250  plane waves:    1246
 k-point 86 :   0.5000 0.5000 0.1250  plane waves:    1242
 k-point 87 :   0.0000 0.0000 0.2500  plane waves:    1228
 k-point 88 :   0.0833 0.0000 0.2500  plane waves:    1228
 k-point 89 :   0.1667 0.0000 0.2500  plane waves:    1241
 k-point 90 :   0.2500 0.0000 0.2500  plane waves:    1234
 k-point 91 :   0.3333 0.0000 0.2500  plane waves:    1243
 k-point 92 :   0.4167-0.0000 0.2500  plane waves:    1251
 k-point 93 :   0.5000 0.0000 0.2500  plane waves:    1236
 k-point 94 :   0.0833 0.0833 0.2500  plane waves:    1230
 k-point 95 :   0.1667 0.0833 0.2500  plane waves:    1238
 k-point 96 :   0.2500 0.0833 0.2500  plane waves:    1240
 k-point 97 :   0.3333 0.0833 0.2500  plane waves:    1249
 k-point 98 :   0.4167 0.0833 0.2500  plane waves:    1252
 k-point 99 :   0.5000 0.0833 0.2500  plane waves:    1253
 k-point ** :  -0.4167 0.0833 0.2500  plane waves:    1251
 k-point ** :  -0.3333 0.0833 0.2500  plane waves:    1241
 k-point ** :  -0.2500 0.0833 0.2500  plane waves:    1238
 k-point ** :  -0.1667 0.0833 0.2500  plane waves:    1232
 k-point ** :  -0.0833 0.0833 0.2500  plane waves:    1229
 k-point ** :   0.1667 0.1667 0.2500  plane waves:    1242
 k-point ** :   0.2500 0.1667 0.2500  plane waves:    1242
 k-point ** :   0.3333 0.1667 0.2500  plane waves:    1257
 k-point ** :   0.4167 0.1667 0.2500  plane waves:    1256
 k-point ** :   0.5000 0.1667 0.2500  plane waves:    1258
 k-point ** :  -0.4167 0.1667 0.2500  plane waves:    1243
 k-point ** :  -0.3333 0.1667 0.2500  plane waves:    1242
 k-point ** :  -0.2500 0.1667 0.2500  plane waves:    1238
 k-point ** :  -0.1667 0.1667 0.2500  plane waves:    1239
 k-point ** :   0.2500 0.2500 0.2500  plane waves:    1250
 k-point ** :   0.3333 0.2500 0.2500  plane waves:    1265
 k-point ** :   0.4167 0.2500 0.2500  plane waves:    1265
 k-point ** :   0.5000 0.2500 0.2500  plane waves:    1252
 k-point ** :  -0.4167 0.2500 0.2500  plane waves:    1243
 k-point ** :  -0.3333 0.2500 0.2500  plane waves:    1239
 k-point ** :  -0.2500 0.2500 0.2500  plane waves:    1236
 k-point ** :   0.3333 0.3333 0.2500  plane waves:    1269
 k-point ** :   0.4167 0.3333 0.2500  plane waves:    1265
 k-point ** :   0.5000 0.3333 0.2500  plane waves:    1258
 k-point ** :  -0.4167 0.3333 0.2500  plane waves:    1250
 k-point ** :  -0.3333 0.3333 0.2500  plane waves:    1243
 k-point ** :   0.4167 0.4167 0.2500  plane waves:    1256
 k-point ** :   0.5000 0.4167 0.2500  plane waves:    1252
 k-point ** :  -0.4167 0.4167 0.2500  plane waves:    1251
 k-point ** :   0.5000 0.5000 0.2500  plane waves:    1236
 k-point ** :   0.0000 0.0000 0.3750  plane waves:    1222
 k-point ** :   0.0833 0.0000 0.3750  plane waves:    1223
 k-point ** :   0.1667 0.0000 0.3750  plane waves:    1240
 k-point ** :   0.2500 0.0000 0.3750  plane waves:    1241
 k-point ** :   0.3333 0.0000 0.3750  plane waves:    1245
 k-point ** :   0.4167-0.0000 0.3750  plane waves:    1251
 k-point ** :   0.5000 0.0000 0.3750  plane waves:    1246
 k-point ** :   0.0833 0.0833 0.3750  plane waves:    1237
 k-point ** :   0.1667 0.0833 0.3750  plane waves:    1239
 k-point ** :   0.2500 0.0833 0.3750  plane waves:    1243
 k-point ** :   0.3333 0.0833 0.3750  plane waves:    1252
 k-point ** :   0.4167 0.0833 0.3750  plane waves:    1255
 k-point ** :   0.5000 0.0833 0.3750  plane waves:    1256
 k-point ** :  -0.4167 0.0833 0.3750  plane waves:    1252
 k-point ** :  -0.3333 0.0833 0.3750  plane waves:    1241
 k-point ** :  -0.2500 0.0833 0.3750  plane waves:    1238
 k-point ** :  -0.1667 0.0833 0.3750  plane waves:    1235
 k-point ** :  -0.0833 0.0833 0.3750  plane waves:    1223
 k-point ** :   0.1667 0.1667 0.3750  plane waves:    1242
 k-point ** :   0.2500 0.1667 0.3750  plane waves:    1249
 k-point ** :   0.3333 0.1667 0.3750  plane waves:    1255
 k-point ** :   0.4167 0.1667 0.3750  plane waves:    1251
 k-point ** :   0.5000 0.1667 0.3750  plane waves:    1256
 k-point ** :  -0.4167 0.1667 0.3750  plane waves:    1247
 k-point ** :  -0.3333 0.1667 0.3750  plane waves:    1242
 k-point ** :  -0.2500 0.1667 0.3750  plane waves:    1239
 k-point ** :  -0.1667 0.1667 0.3750  plane waves:    1240
 k-point ** :   0.2500 0.2500 0.3750  plane waves:    1265
 k-point ** :   0.3333 0.2500 0.3750  plane waves:    1259
 k-point ** :   0.4167 0.2500 0.3750  plane waves:    1261
[...]
 k-point ** :   0.3333 0.2500 0.5000  plane waves:    1264
 k-point ** :   0.4167 0.2500 0.5000  plane waves:    1264
 k-point ** :   0.5000 0.2500 0.5000  plane waves:    1258
 k-point ** :  -0.4167 0.2500 0.5000  plane waves:    1244
 k-point ** :  -0.3333 0.2500 0.5000  plane waves:    1244
 k-point ** :  -0.2500 0.2500 0.5000  plane waves:    1250
 k-point ** :   0.3333 0.3333 0.5000  plane waves:    1266
 k-point ** :   0.4167 0.3333 0.5000  plane waves:    1264
 k-point ** :   0.5000 0.3333 0.5000  plane waves:    1252
 k-point ** :  -0.4167 0.3333 0.5000  plane waves:    1242
 k-point ** :  -0.3333 0.3333 0.5000  plane waves:    1242
 k-point ** :   0.4167 0.4167 0.5000  plane waves:    1256
 k-point ** :   0.5000 0.4167 0.5000  plane waves:    1250
 k-point ** :  -0.4167 0.4167 0.5000  plane waves:    1250
 k-point ** :   0.5000 0.5000 0.5000  plane waves:    1244

 maximum and minimum number of plane-waves per node :      1281     1221

 maximum number of plane-waves:      1281
 maximum index in each direction:
   IXMAX=    5   IYMAX=    4   IZMAX=   14
   IXMIN=   -5   IYMIN=   -5   IZMIN=  -14

 WARNING: aliasing errors must be expected set NGX to  22 to avoid them
 NGY is ok and might be reduce to  20
 NGZ is ok and might be reduce to  58
 aliasing errors are usually negligible using standard VASP settings
 and one can safely disregard these warnings

 serial   3D FFT for wavefunctions
 parallel 3D FFT for charge:
    minimum data exchange during FFTs selected (reduces bandwidth)

 Broyden mixing: mesh for mixing (old mesh)
   NGX =  9   NGY =  9   NGZ = 29
  (NGX  = 40   NGY  = 40   NGZ  =120)
  gives a total of   2349 points

 initial charge density was supplied:
 charge density of overlapping atoms calculated
 number of electron      16.0000000 magnetization
 keeping initial charge density in first step

 Maximum index for augmentation-charges         7367 (set IRDMAX)

 First call to EWALD:  gamma=   0.530
 Maximum number of real-space cells 4x 4x 2
 Maximum number of reciprocal cells 2x 2x 5

 FEWALD executed in parallel

----------------------------------------- Iteration    1(   1)  ---------------------------------------

 BZINTS: Fermi energy: 13.652284; 16.000000 electrons
         Band energy: -17.114746;  BLOECHL correction: -0.445206

 eigenvalue-minimisations  :  5168
 total energy-change (2. order) : 0.5965329E+02  (-0.8972218E+03)
 number of electron      16.0000000 magnetization
 augmentation part       16.0000000 magnetization

 Free energy of the ion-electron system (eV)
  alpha Z        PSCENC =        34.88866555
  Ewald energy   TEWEN  =      -425.32219863
  -Hartree energ DENC   =      -172.10097008
  -exchange      EXHF   =         0.00000000
  -V(xc)+E(xc)   XCENC  =        55.30331025
  PAW double counting   =       151.32577238     -155.92769107
  entropy T*S    EENTRO =         0.00000000
  eigenvalues    EBANDS =       -17.11474617
  atomic energy  EATOM  =       588.60115103
  free energy    TOTEN  =        59.65329327 eV

  energy without entropy =       59.65329327  energy(sigma->0) =       59.65329327

[...]

 BZINTS: Fermi energy:  3.128936; 16.000000 electrons
         Band energy:-111.370549;  BLOECHL correction: -0.001496

 eigenvalue-minimisations  :  7284
 total energy-change (2. order) :-0.9425580E+02  (-0.8672901E+02)
 number of electron      16.0000000 magnetization
 augmentation part       16.0000000 magnetization

[...]

 BZINTS: Fermi energy:  2.589100; 16.000000 electrons
         Band energy:-116.042269;  BLOECHL correction: -0.000007

[...]

 Broyden mixing:
  rms(total) = 0.78106E+00    rms(broyden)= 0.78097E+00
  rms(prec ) = 0.12194E+01
  weight for this iteration     100.00

[...]

 eigenvalues of (default mixing * dielectric matrix)
  average eigenvalue GAMMA=   2.0342
  2.0342

[...]

 eigenvalue-minimisations  :  4548
 total energy-change (2. order) :-0.1220621E-07  (-0.2411766E-09)
 number of electron      15.9999999 magnetization
 augmentation part        0.3834137 magnetization

 Broyden mixing:
  rms(total) = 0.62039E-05    rms(broyden)= 0.62004E-05
  rms(prec ) = 0.87953E-05
  weight for this iteration     100.00

 eigenvalues of (default mixing * dielectric matrix)
  average eigenvalue GAMMA=   1.8512
  3.1116  2.7499  2.4489  2.4489  1.9355  1.0651  0.9573  0.9716  0.9716

[...]

----------------------------------------- Iteration    1(  15)  ---------------------------------------

 BZINTS: Fermi energy:  4.201491; 16.000000 electrons
         Band energy: -78.605926;  BLOECHL correction: -0.000032

 eigenvalue-minimisations  :  4280
 total energy-change (2. order) : 0.4289404E-08  (-0.4207480E-10)
 number of electron      15.9999999 magnetization
 augmentation part        0.3834137 magnetization

 Free energy of the ion-electron system (eV)
  alpha Z        PSCENC =        34.88866555
  Ewald energy   TEWEN  =      -425.32219863
  -Hartree energ DENC   =      -208.85310081
  -exchange      EXHF   =         0.00000000
  -V(xc)+E(xc)   XCENC  =        57.59716519
  PAW double counting   =       277.73335665     -282.89856891
  entropy T*S    EENTRO =         0.00000000
  eigenvalues    EBANDS =       -78.60592566
  atomic energy  EATOM  =       588.60115103
  free energy    TOTEN  =       -36.85945559 eV

  energy without entropy =      -36.85945559  energy(sigma->0) =      -36.85945559

 average (electrostatic) potential at core
  the test charge radii are     0.6991
  (the norm of the test charge is              1.0000)
       1 -51.2077       2 -51.2077       3 -51.1952       4 -51.1952

 E-fermi :   4.2015     XC(G=0):  -9.9188     alpha+bet :-10.7464

 k-point     1 :       0.0000    0.0000    0.0000
  band No.  band energies     occupation
      1     -15.3864      2.00000
      2     -15.1944      2.00000
      3      -4.0860      2.00000
      4      -2.6218      2.00000
      5       1.1930      2.00000
      6       1.1944      2.00000
      7       1.2033      2.00000
      8       1.2043      2.00000
      9       8.0916      0.00000
     10      12.5202      0.00000
     11      12.5493      0.00000
     12      12.5568      0.00000

[...]

 k-point   215 :       0.5000    0.5000    0.5000
  band No.  band energies     occupation
      1     -10.0576      2.00000
      2     -10.0576      2.00000
      3      -9.0025      2.00000
      4      -9.0025      2.00000
      5      -2.1706      2.00000
      6      -2.1706      2.00000
      7       1.8383      2.00000
      8       1.8383      2.00000
      9       5.8673      0.00000
     10       5.8673      0.00000
     11      11.6198      0.00000
     12      11.6198      0.00000

 soft charge-density along one line, spin component           1
         0         1         2         3         4         5         6         7         8         9
 total charge-density along one line

------------------------ aborting loop because EDIFF is reached ----------------------------------------

         DFTD3 V3.0 Rev 1
 IVDW         = 12
 DF pbe
 parameters
 VDW_S6       =    1.0000
 VDW_S8       =    0.7875
 VDW_A1       =    0.4289
 VDW_A2       =    4.4407
 k1-k3        =   16.0000    1.3333   -4.0000
 VDW_RADIUS   =   50.2022 A
 VDW_CNRADIUS =   21.1671 A
 Edisp (eV)   -0.58467

 E6    (eV) :    -0.4202
 E8    (eV) :    -0.1645
 % E8        : 28.13

  FORCE on cell =-STRESS in cart. coord.  units (eV):
  Direction    XX          YY          ZZ          XY          YZ          ZX
  Alpha Z    34.88867    34.88867    34.88867
  Ewald     112.45646   112.62795  -650.40690     0.14852     0.00000     0.00000
  Hartree   186.25667   186.29443  -163.69795     0.03270    -0.00000    -0.00000
  E(xc)     -58.41272   -58.41252   -60.62849     0.00017    -0.00000     0.00000
  Local    -499.69190  -499.87851   579.32121    -0.16162    -0.00000     0.00000
  n-local   -14.44047   -13.69889   -12.81999    -0.22995     0.00797    -0.00562
  augment    -1.54647    -1.54667    -1.41730    -0.00018     0.00000     0.00000
  Kinetic   243.80365   236.64578   275.08408     2.09624    -0.11396     0.07354
  Fock        0.00000     0.00000     0.00000     0.00000     0.00000     0.00000
  vdW        -0.10055    -0.09952    -0.70270     0.00089    -0.00000    -0.00000
  Total      -0.00091     0.03494    -0.37937     0.03105     0.00000     0.00000
  in kB      -0.03894     1.49829   -16.26639     1.33128     0.00000     0.00000

 VOLUME and BASIS-vectors are now :
  energy-cutoff  :      600.00
  volume of cell :       37.37
      direct lattice vectors                 reciprocal lattice vectors
     2.466437249 -0.000959643  0.000000000     0.405534294  0.234345762  0.000000000
    -1.234049700  2.135517493  0.000000000     0.000182236  0.468375882  0.000000000
     0.000000000  0.000000000  7.095973279     0.000000000  0.000000000  0.140924995

  length of vectors
     2.466437436  2.466437436  7.095973279     0.468375917  0.468375917  0.140924995

 FORCES acting on ions
    electron-ion (+dipol)            ewald-force                    non-local-force                 convergence-correction
   -.193E+00 0.112E+00 -.252E-13   0.189E+00 -.109E+00 -.188E-13   -.103E-02 0.595E-03 0.000E+00   -.108E-05 0.623E-06 0.151E-12
   0.193E+00 -.112E+00 0.272E-12   -.189E+00 0.109E+00 0.188E-13   0.103E-02 -.595E-03 0.000E+00   0.108E-05 -.623E-06 -.159E-12
   0.189E+00 -.109E+00 -.620E-12   -.188E+00 0.109E+00 -.188E-13   -.982E-03 0.567E-03 -.108E-18   0.150E-05 -.867E-06 0.151E-12
   -.189E+00 0.109E+00 0.985E-12   0.188E+00 -.109E+00 0.188E-13   0.982E-03 -.567E-03 0.108E-18   -.150E-05 0.867E-06 -.160E-12
   -.676E-05 -.117E-04 0.612E-12   -.322E-14 -.680E-15 0.000E+00   -.555E-16 0.111E-15 0.000E+00   0.180E-11 0.312E-11 -.173E-13

 POSITION                                       TOTAL-FORCE (eV/Angst)
      2.46376      0.00059      1.77399        -0.005908      0.003411      0.000000
     -1.23137      2.13397      5.32198         0.005908     -0.003411      0.000000
     -0.00313      1.42485      1.77399         0.000012     -0.000007      0.000000
      1.23552      0.70971      5.32198        -0.000012      0.000007     -0.000000
    total drift:                               -0.000007     -0.000012      0.000000

  FREE ENERGIE OF THE ION-ELECTRON SYSTEM (eV)
  free  energy   TOTEN  =       -37.44412660 eV

  energy  without entropy=      -37.44412660  energy(sigma->0) =      -37.44412660

 reached required accuracy - stopping structural energy minimisation
 BZINTS: Fermi energy:  4.201491; 16.000000 electrons
         Band energy: -78.605926;  BLOECHL correction: -0.000032