 vasp.5.3.5 31Mar14 (build Nov 02 2014 15:17:37) complex

 executed on        ion-Intel-MKL date 2016.08.24  02:59:37

 INCAR:
 POTCAR:   PAW_PBE C 08Apr2002

 POTCAR:   PAW_PBE C 08Apr2002
   VRHFIN =C: s2p2

   TITEL  = PAW_PBE C 08Apr2002
   POMASS =   12.011; ZVAL   =    4.000    mass and valenz
   ENMAX  =  400.000; ENMIN  =  300.000 eV
   QCUT   =   -5.516; QGAM   =   11.032    optimization parameters

   Description
     l     E      TYP  RCUT    TYP  RCUT
     0   .000     23  1.200
     0   .000     23  1.200
     1   .000     23  1.500
     1  2.500     23  1.500
     2   .000      7  1.500

 PAW_PBE C 08Apr2002                    :

 POSCAR: C
  positions in direct lattice
 exchange correlation table for  LEXCH =        8
   RHO(1)=    0.500       N(1)  =     2000
   RHO(2)=  100.500       N(2)  =     4000

 ion  position               nearest neighbor table
   1  0.501  0.000  0.126-  20 1.42  18 1.42  19 1.43  12 2.01  16 2.03
   2  1.000  0.000  0.125-  19 1.42  17 1.42  20 1.42  15 2.02  11 2.02
   3  0.500  0.500  0.125-  18 1.42  20 1.42  17 1.42  14 2.02  10 2.02
   4  1.000  0.500  0.125-  17 1.42  19 1.42  18 1.42  13 2.02   9 2.02
   5  0.500  0.000  0.625-  24 1.42  22 1.42  23 1.42  16 2.02  12 2.02
   6  1.000  0.000  0.625-  23 1.42  21 1.42  24 1.42  15 2.02  11 2.02
   7  0.500  0.500  0.625-  22 1.42  24 1.42  21 1.42  14 2.02  10 2.02
   8  1.000  0.500  0.625-  21 1.42  23 1.42  22 1.42  13 2.02   9 2.02
   9  0.000  0.500  0.375-  28 1.42  27 1.42  26 1.42   8 2.02   4 2.02
  10  0.500  0.500  0.375-  27 1.42  28 1.42  25 1.42   7 2.02   3 2.02
  11  0.000  1.000  0.375-  26 1.42  25 1.42  28 1.42   6 2.02   2 2.02
  12  0.500  1.000  0.375-  25 1.42  26 1.42  27 1.42   1 2.01   5 2.02
  13  0.000  0.500  0.875-  32 1.42  31 1.42  30 1.42   8 2.02   4 2.02
  14  0.500  0.500  0.875-  31 1.42  32 1.42  29 1.42   7 2.02   3 2.02
  15  0.000  1.000  0.875-  30 1.42  29 1.42  32 1.42   6 2.02   2 2.02
  16  0.500  1.000  0.875-  29 1.42  30 1.42  31 1.42   5 2.02   1 2.03
  17  0.167  0.333  0.125-   4 1.42   2 1.42   3 1.42
  18  0.667  0.333  0.125-   3 1.42   4 1.42   1 1.42
  19  0.167  0.833  0.125-   2 1.42   4 1.42   1 1.43
  20  0.667  0.833  0.125-   1 1.42   3 1.42   2 1.42
  21  0.167  0.333  0.625-   8 1.42   6 1.42   7 1.42
  22  0.667  0.333  0.625-   7 1.42   5 1.42   8 1.42
  23  0.167  0.833  0.625-   6 1.42   8 1.42   5 1.42
  24  0.667  0.833  0.625-   5 1.42   7 1.42   6 1.42
  25  0.333  0.167  0.375-  12 1.42  11 1.42  10 1.42
  26  0.833  0.167  0.375-  11 1.42  12 1.42   9 1.42
  27  0.333  0.667  0.375-  10 1.42   9 1.42  12 1.42
  28  0.833  0.667  0.375-   9 1.42  10 1.42  11 1.42
  29  0.333  0.167  0.875-  16 1.42  15 1.42  14 1.42
  30  0.833  0.167  0.875-  15 1.42  16 1.42  13 1.42
  31  0.333  0.667  0.875-  14 1.42  13 1.42  16 1.42
  32  0.833  0.667  0.875-  13 1.42  14 1.42  15 1.42

  LATTYP: Found a base centered orthorhombic cell.
 ALAT       =     4.9339256766
 B/A-ratio  =     1.7322311103
 C/A-ratio  =     1.6357949639

  Lattice vectors:

 A1 = (   4.9343108848,  -0.0002224000,   0.0000000000)
 A2 = (  -2.4673480464,   4.2731273763,   0.0000000000)
 A3 = (   0.0000000000,   0.0000000000,   8.0708907740)

Analysis of symmetry for initial positions (statically):
 Subroutine PRICEL returns:
 Original cell was already a primitive cell.

 Routine SETGRP: Setting up the symmetry group for a
 base centered orthorhombic supercell.

 Subroutine GETGRP returns: Found  1 space group operations
 (whereof  1 operations were pure point group operations)
 out of a pool of  8 trial point group operations.

The static configuration has the point symmetry C_1 .

Analysis of symmetry for dynamics (positions and initial velocities):
 Subroutine PRICEL returns:
 Original cell was already a primitive cell.

 Routine SETGRP: Setting up the symmetry group for a
 base centered orthorhombic supercell.

 Subroutine GETGRP returns: Found  1 space group operations
 (whereof  1 operations were pure point group operations)
 out of a pool of  8 trial point group operations.

The dynamic configuration has the point symmetry C_1 .

 KPOINTS: B4C B11C-CBC

Automatic generation of k-mesh.
Space group operators:
 irot       det(A)        alpha          n_x          n_y          n_z        tau_x        tau_y        tau_z
    1     1.000000     0.000000     1.000000     0.000000     0.000000     0.000000     0.000000     0.000000

 Subroutine IBZKPT returns following result:

 Found    163 irreducible k-points:

 Following reciprocal coordinates:
            Coordinates               Weight
  0.000000  0.000000  0.000000      1.000000
  0.111111 -0.000000  0.000000      2.000000
  0.222222 -0.000000  0.000000      2.000000
  0.333333  0.000000  0.000000      2.000000
  0.444444 -0.000000  0.000000      2.000000
  0.000000  0.111111  0.000000      2.000000
  0.111111  0.111111  0.000000      2.000000
  0.222222  0.111111  0.000000      2.000000
  0.333333  0.111111  0.000000      2.000000
  0.444444  0.111111  0.000000      2.000000
 -0.444444  0.111111  0.000000      2.000000
 -0.333333  0.111111  0.000000      2.000000
 -0.222222  0.111111  0.000000      2.000000
 -0.111111  0.111111  0.000000      2.000000
 -0.000000  0.222222  0.000000      2.000000
  0.111111  0.222222  0.000000      2.000000
  0.222222  0.222222  0.000000      2.000000
  0.333333  0.222222  0.000000      2.000000
  0.444444  0.222222  0.000000      2.000000
 -0.444444  0.222222  0.000000      2.000000
 -0.333333  0.222222  0.000000      2.000000
 -0.222222  0.222222  0.000000      2.000000
 -0.111111  0.222222  0.000000      2.000000
  0.000000  0.333333  0.000000      2.000000
  0.111111  0.333333  0.000000      2.000000
  0.222222  0.333333  0.000000      2.000000
  0.333333  0.333333  0.000000      2.000000
  0.444444  0.333333  0.000000      2.000000
 -0.444444  0.333333  0.000000      2.000000
 -0.333333  0.333333  0.000000      2.000000
 -0.222222  0.333333  0.000000      2.000000
 -0.111111  0.333333  0.000000      2.000000
 -0.000000  0.444444  0.000000      2.000000
  0.111111  0.444444  0.000000      2.000000
  0.222222  0.444444  0.000000      2.000000
  0.333333  0.444444  0.000000      2.000000
  0.444444  0.444444  0.000000      2.000000
 -0.444444  0.444444  0.000000      2.000000
 -0.333333  0.444444  0.000000      2.000000
 -0.222222  0.444444  0.000000      2.000000
 -0.111111  0.444444  0.000000      2.000000
  0.000000  0.000000  0.250000      2.000000
  0.111111 -0.000000  0.250000      2.000000
  0.222222 -0.000000  0.250000      2.000000
  0.333333  0.000000  0.250000      2.000000
  0.444444 -0.000000  0.250000      2.000000
 -0.444444  0.000000  0.250000      2.000000
 -0.333333 -0.000000  0.250000      2.000000
 -0.222222  0.000000  0.250000      2.000000
 -0.111111  0.000000  0.250000      2.000000
  0.000000  0.111111  0.250000      2.000000
  0.111111  0.111111  0.250000      2.000000
  0.222222  0.111111  0.250000      2.000000
  0.333333  0.111111  0.250000      2.000000
  0.444444  0.111111  0.250000      2.000000
 -0.444444  0.111111  0.250000      2.000000
 -0.333333  0.111111  0.250000      2.000000
 -0.222222  0.111111  0.250000      2.000000
 -0.111111  0.111111  0.250000      2.000000
 -0.000000  0.222222  0.250000      2.000000
[...]
  0.333333  0.333333  0.500000      2.000000
  0.444444  0.333333  0.500000      2.000000
 -0.444444  0.333333  0.500000      2.000000
 -0.333333  0.333333  0.500000      2.000000
 -0.222222  0.333333  0.500000      2.000000
 -0.111111  0.333333  0.500000      2.000000
 -0.000000  0.444444  0.500000      2.000000
  0.111111  0.444444  0.500000      2.000000
  0.222222  0.444444  0.500000      2.000000
  0.333333  0.444444  0.500000      2.000000
  0.444444  0.444444  0.500000      2.000000
 -0.444444  0.444444  0.500000      2.000000
 -0.333333  0.444444  0.500000      2.000000
 -0.222222  0.444444  0.500000      2.000000
 -0.111111  0.444444  0.500000      2.000000

 Following cartesian coordinates:
            Coordinates               Weight
  0.000000  0.000000  0.000000      1.000000
  0.022519  0.013002  0.000000      2.000000
  0.045037  0.026005  0.000000      2.000000
  0.067556  0.039007  0.000000      2.000000
  0.090075  0.052010  0.000000      2.000000
  0.000001  0.026003  0.000000      2.000000
  0.022520  0.039005  0.000000      2.000000
  0.045038  0.052008  0.000000      2.000000
  0.067557  0.065010  0.000000      2.000000
  0.090076  0.078013  0.000000      2.000000
 -0.090073 -0.026007  0.000000      2.000000
 -0.067555 -0.013005  0.000000      2.000000
 -0.045036 -0.000002  0.000000      2.000000
 -0.022517  0.013000  0.000000      2.000000
  0.000002  0.052006  0.000000      2.000000
  0.022521  0.065008  0.000000      2.000000
  0.045040  0.078011  0.000000      2.000000
  0.067558  0.091013  0.000000      2.000000
  0.090077  0.104016  0.000000      2.000000
 -0.090072 -0.000004  0.000000      2.000000
 -0.067554  0.012998  0.000000      2.000000
 -0.045035  0.026001  0.000000      2.000000
 -0.022516  0.039003  0.000000      2.000000
  0.000004  0.078009  0.000000      2.000000
  0.022522  0.091011  0.000000      2.000000
  0.045041  0.104014  0.000000      2.000000
  0.067559  0.117016  0.000000      2.000000
  0.090078  0.130019  0.000000      2.000000
 -0.090071  0.025999  0.000000      2.000000
 -0.067552  0.039001  0.000000      2.000000
 -0.045034  0.052004  0.000000      2.000000
 -0.022515  0.065006  0.000000      2.000000
  0.000005  0.104012  0.000000      2.000000
  0.022523  0.117014  0.000000      2.000000
  0.045042  0.130017  0.000000      2.000000
  0.067561  0.143019  0.000000      2.000000
  0.090079  0.156022  0.000000      2.000000
 -0.090070  0.052002  0.000000      2.000000
 -0.067551  0.065004  0.000000      2.000000
 -0.045033  0.078007  0.000000      2.000000
 -0.022514  0.091009  0.000000      2.000000
  0.000000  0.000000  0.030976      2.000000
  0.022519  0.013002  0.030976      2.000000
  0.045037  0.026005  0.030976      2.000000
  0.067556  0.039007  0.030976      2.000000
  0.090075  0.052010  0.030976      2.000000
 -0.090075 -0.052010  0.030976      2.000000
 -0.067556 -0.039007  0.030976      2.000000
 -0.045037 -0.026005  0.030976      2.000000
 -0.022519 -0.013002  0.030976      2.000000
  0.000001  0.026003  0.030976      2.000000
  0.022520  0.039005  0.030976      2.000000
  0.045038  0.052008  0.030976      2.000000
  0.067557  0.065010  0.030976      2.000000
  0.090076  0.078013  0.030976      2.000000
 -0.090073 -0.026007  0.030976      2.000000
 -0.067555 -0.013005  0.030976      2.000000
 -0.045036 -0.000002  0.030976      2.000000
 -0.022517  0.013000  0.030976      2.000000
  0.000002  0.052006  0.030976      2.000000
[...]
  0.067559  0.117016  0.061951      2.000000
  0.090078  0.130019  0.061951      2.000000
 -0.090071  0.025999  0.061951      2.000000
 -0.067552  0.039001  0.061951      2.000000
 -0.045034  0.052004  0.061951      2.000000
 -0.022515  0.065006  0.061951      2.000000
  0.000005  0.104012  0.061951      2.000000
  0.022523  0.117014  0.061951      2.000000
  0.045042  0.130017  0.061951      2.000000
[...]

[...]

 eigenvalue-minimisations  : 19848
 total energy-change (2. order) : 0.1673470E-06  (-0.7865601E-06)
 number of electron     128.0000010 magnetization
 augmentation part        3.1368753 magnetization

 Free energy of the ion-electron system (eV)
  alpha Z        PSCENC =       490.30840325
  Ewald energy   TEWEN  =     -5655.84027598
  -Hartree energ DENC   =      -402.44769786
  -exchange      EXHF   =         0.00000000
  -V(xc)+E(xc)   XCENC  =       477.98770269
  PAW double counting   =      2304.05801657    -2345.95614790
  entropy T*S    EENTRO =         0.00000000
  eigenvalues    EBANDS =       164.95947161
  atomic energy  EATOM  =      4708.80920826
  free energy    TOTEN  =      -258.12131936 eV

  energy without entropy =     -258.12131936  energy(sigma->0) =     -258.12131936

 average (electrostatic) potential at core
  the test charge radii are     0.6991
  (the norm of the test charge is              1.0000)
       1 -45.0045       2 -45.0050       3 -45.0079       4 -45.0029       5 -45.0053
       6 -45.0046       7 -45.0034       8 -45.0069       9 -45.0109      10 -45.0084
      11 -45.0095      12 -45.0127      13 -45.0005      14 -45.0004      15 -44.9999
      16 -44.9975      17 -44.4031      18 -44.4037      19 -44.4103      20 -44.3956
      21 -44.4040      22 -44.4027      23 -44.4039      24 -44.4016      25 -44.4063
      26 -44.4078      27 -44.4081      28 -44.4129      29 -44.3986      30 -44.4006
      31 -44.3990      32 -44.3930

 E-fermi :  11.6847     XC(G=0): -13.6415     alpha+bet :-18.8781

 k-point     1 :       0.0000    0.0000    0.0000
  band No.  band energies     occupation
      1     -11.7649      2.00000
      2      -9.9825      2.00000
      3      -9.9756      2.00000
      4      -6.2585      2.00000
      5      -6.0673      2.00000
      6      -6.0670      2.00000
      7      -6.0664      2.00000
      8      -5.0926      2.00000
      9      -5.0904      2.00000
     10      -5.0891      2.00000
     11      -4.5020      2.00000
     12      -4.4949      2.00000
     13      -4.4934      2.00000
     14      -4.4930      2.00000
     15      -4.4916      2.00000
     16      -4.4844      2.00000
     17      -3.4090      2.00000
     18      -3.4057      2.00000
     19      -3.4035      2.00000
     20      -3.4018      2.00000
     21      -3.3989      2.00000
     22      -3.3965      2.00000
     23      -1.8408      2.00000
     24      -1.1430      2.00000
     25      -1.1416      2.00000
     26      -1.1410      2.00000
     27      -0.9896      2.00000
     28      -0.9865      2.00000
     29      -0.9842      2.00000
     30       2.8747      2.00000
     31       2.8774      2.00000
     32       2.8821      2.00000
     33       3.9079      2.00000
     34       3.9135      2.00000
     35       3.9149      2.00000
     36       3.9156      2.00000
     37       3.9168      2.00000
     38       3.9231      2.00000
     39       3.9583      2.00000
     40       3.9593      2.00000
     41       3.9599      2.00000
     42       4.9395      2.00000
     43       4.9483      2.00000
     44       5.1738      2.00000
     45       5.1773      2.00000
     46       5.1825      2.00000
     47       6.8259      2.00000
     48       6.8390      2.00000
     49       7.2390      2.00000
     50       7.2405      2.00000
     51       7.2412      2.00000
     52       7.3595      2.00000
     53       7.3684      2.00000
     54       7.3727      2.00000
     55       7.3833      2.00000
     56       7.8702      2.00000
     57       7.8847      2.00000
     58       9.4007      2.00000
     59       9.4162      2.00000
     60       9.4165      2.00000
[...]
     70      12.3462      0.00000
     71      14.8307      0.00000
     72      14.8355      0.00000
     73      14.8412      0.00000
     74      14.9086      0.00000
     75      14.9097      0.00000
     76      14.9118      0.00000
     77      17.8117      0.00000
     78      17.8142      0.00000
     79      17.8159      0.00000
     80      18.0215      0.00000
     81      18.0398      0.00000
     82      18.0501      0.00000
     83      18.0529      0.00000
     84      18.0618      0.00000

[...]

 k-point   163 :      -0.1111    0.4444    0.5000
  band No.  band energies     occupation
      1     -10.3104      2.00000
      2     -10.3007      2.00000
      3      -8.9335      2.00000
      4      -8.9238      2.00000
      5      -7.5861      2.00000
      6      -7.5765      2.00000
      7      -6.9688      2.00000
      8      -6.9679      2.00000
      9      -5.6946      2.00000
     10      -5.6938      2.00000
     11      -5.6623      2.00000
     12      -5.6527      2.00000
     13      -4.4656      2.00000
     14      -4.4654      2.00000
     15      -3.1381      2.00000
     16      -3.1316      2.00000
     17      -2.4825      2.00000
     18      -2.4766      2.00000
     19      -1.0970      2.00000
     20      -1.0877      2.00000
     21      -0.8408      2.00000
     22      -0.8359      2.00000
     23       0.1866      2.00000
     24       0.1954      2.00000
     25       0.4498      2.00000
     26       0.4540      2.00000
     27       0.7851      2.00000
     28       0.7902      2.00000
     29       1.6369      2.00000
     30       1.6453      2.00000
     31       1.9954      2.00000
     32       2.0001      2.00000
     33       2.0932      2.00000
     34       2.0965      2.00000
     35       2.2784      2.00000
     36       2.2803      2.00000
     37       3.2919      2.00000
     38       3.3005      2.00000
     39       3.4193      2.00000
     40       3.4276      2.00000
     41       3.4840      2.00000
     42       3.4880      2.00000
     43       3.8111      2.00000
     44       3.8191      2.00000
     45       4.5834      2.00000
     46       4.5941      2.00000
     47       4.7742      2.00000
     48       4.7823      2.00000
     49       5.3686      2.00000
     50       5.3718      2.00000
     51       5.3814      2.00000
     52       5.3894      2.00000
     53       6.3354      2.00000
     54       6.3492      2.00000
     55       6.3937      2.00000
     56       6.3973      2.00000
     57       9.9720      2.00000
     58       9.9776      2.00000
     59      10.1305      2.00000
     60      10.1341      2.00000
[...]
     70      13.7977      0.00000
     71      15.5103      0.00000
     72      15.5270      0.00000
     73      16.0372      0.00000
     74      16.0469      0.00000
     75      16.0675      0.00000
     76      16.0797      0.00000
     77      16.2464      0.00000
     78      16.2563      0.00000
     79      17.5370      0.00000
     80      17.5465      0.00000
     81      18.1739      0.00000
     82      18.1829      0.00000
     83      19.1792      0.00000
     84      19.1857      0.00000

 soft charge-density along one line, spin component           1
         0         1         2         3         4         5         6         7         8         9
 total charge-density along one line

------------------------ aborting loop because EDIFF is reached ----------------------------------------

         DFTD3 V3.0 Rev 1
 IVDW         = 11
 DF pbe
 parameters
 VDW_S6       =    1.0000
 VDW_S8       =    0.7220
 VDW_SR       =    1.2170
 rs18     =    1.0000
 alpha6   =   14.0000
 alpha8   =   16.0000
 k1-k3    =   16.0000    1.3333   -4.0000
 VDW_RADIUS   =   50.2022 A
 VDW_CNRADIUS =   21.1671 A
 Edisp (eV)   -3.76278

 E6    (eV) :    -2.3155
 E8    (eV) :    -1.4473
 % E8        : 38.46

  FORCE on cell =-STRESS in cart. coord.  units (eV):
  Direction    XX          YY          ZZ          XY          YZ          ZX
  Alpha Z   490.30840   490.30840   490.30840
  Ewald   -1318.75257 -1319.15382 -3017.95708    -1.42404     0.00009    -0.01288
  Hartree   231.91039   231.86290   -61.32279    -0.17550     0.00023    -0.00334
  E(xc)    -483.48906  -483.49077  -489.23086    -0.00512     0.00016    -0.00034
  Local    -762.21386  -761.84579  1036.43459     1.32231     0.00439     0.00420
  n-local  -106.54037  -106.55755  -124.66648    -0.02266     0.00297    -0.00671
  augment   -12.85428   -12.85358   -11.72441     0.00234    -0.00007     0.00021
  Kinetic  1971.26109  1971.35222  2378.17048     0.28112    -0.03522     0.07663
  Fock        0.00000     0.00000     0.00000     0.00000     0.00000     0.00000
  vdW        -3.26777    -3.26765    -3.07057     0.00016     0.00000     0.00000
  Total       6.36196     6.35436   196.94129    -0.02138    -0.02745     0.05778
  in kB      59.89896    59.82736  1854.23528    -0.20134    -0.25844     0.54398

 VOLUME and BASIS-vectors are now :
  energy-cutoff  :      600.00
  volume of cell :      170.17
      direct lattice vectors                 reciprocal lattice vectors
     4.934310885 -0.000222400  0.000000000     0.202667819  0.117022500  0.000000000
    -2.467348046  4.273127376  0.000000000     0.000010548  0.234026730  0.000000000
     0.000000000  0.000000000  8.070890774     0.000000000  0.000000000  0.123902061

  length of vectors
     4.934310890  4.934310890  8.070890774     0.234026730  0.234026730  0.123902061

 FORCES acting on ions
    electron-ion (+dipol)            ewald-force                    non-local-force                 convergence-correction
   0.114E+01 -.722E-02 0.250E+00   -.128E+01 0.101E-01 -.326E+00   -.139E+00 0.250E-02 -.125E-01   -.278E-02 0.411E-03 -.197E-02
   -.336E+00 0.906E-04 0.279E+00   0.326E+00 0.173E-02 -.276E+00   0.294E-01 0.121E-02 -.925E-02   0.307E-02 0.385E-03 -.214E-02
   -.513E-01 0.168E+00 0.278E+00   0.254E-01 -.172E+00 -.276E+00   0.382E-02 -.132E-01 -.920E-02   -.140E-03 -.217E-02 -.163E-02
   -.496E-01 -.163E+00 0.279E+00   0.254E-01 0.176E+00 -.276E+00   0.389E-02 0.161E-01 -.898E-02   -.156E-03 0.131E-02 -.182E-02
   0.459E-02 0.466E-03 -.175E+00   -.117E-01 0.175E-02 0.173E+00   -.293E-02 0.105E-02 0.357E-02   -.199E-02 0.265E-03 0.200E-02
   -.151E-01 -.222E-02 -.135E+00   0.521E-02 0.175E-02 0.136E+00   -.137E-02 0.209E-02 0.191E-02   0.176E-02 0.447E-03 0.217E-02
   0.286E-02 0.103E-01 -.134E+00   -.297E-02 -.298E-02 0.136E+00   -.120E-02 0.138E-02 0.187E-02   -.749E-04 -.140E-02 0.164E-02
   -.256E-02 -.605E-02 -.134E+00   -.298E-02 0.647E-02 0.136E+00   -.979E-03 0.127E-02 0.218E-02   0.152E-03 0.767E-03 0.185E-02
   0.759E-02 -.504E-01 -.574E-01   0.628E-02 0.370E-01 0.619E-01   -.467E-04 -.226E-02 0.103E-02   -.433E-03 0.174E-02 0.354E-03
   -.150E-01 0.295E-01 -.598E-01   0.630E-02 -.405E-01 0.619E-01   0.460E-02 0.262E-02 -.869E-02   0.253E-03 -.836E-03 0.682E-03
   -.723E-01 0.145E-01 -.591E-01   0.734E-01 -.178E-02 0.621E-01   -.240E-02 -.424E-02 -.398E-02   0.217E-02 -.476E-03 0.549E-03
   0.110E+00 0.255E-03 -.470E+00   -.109E+00 -.177E-02 0.509E+00   0.168E-02 -.217E-02 -.551E-01   -.206E-02 -.212E-03 0.405E-03
   -.154E-01 -.297E-01 -.597E-01   0.618E-02 0.362E-01 0.628E-01   0.475E-02 -.558E-02 -.942E-02   0.173E-03 0.698E-03 -.386E-03
   0.116E-01 0.488E-01 -.572E-01   0.620E-02 -.397E-01 0.628E-01   -.474E-03 -.735E-03 0.830E-03   -.171E-03 -.187E-02 -.700E-03
   -.704E-01 -.184E-01 -.579E-01   0.719E-01 -.178E-02 0.625E-01   -.160E-02 0.146E-02 -.388E-02   0.226E-02 0.529E-03 -.579E-03
   0.103E+00 -.191E-02 -.466E+00   -.106E+00 -.177E-02 0.504E+00   0.728E-03 -.939E-03 -.525E-01   -.231E-02 0.432E-03 -.505E-03
   -.112E+00 -.980E-03 0.214E+00   0.121E+00 -.233E-02 -.234E+00   0.417E-02 -.123E-02 0.352E-01   0.629E-03 0.163E-03 -.213E-02
   0.370E+00 0.643E-02 0.683E+00   -.346E+00 -.114E-01 -.739E+00   0.408E-01 -.808E-03 0.572E-01   -.300E-03 0.111E-03 -.183E-02
   -.506E+00 -.502E+00 0.677E+00   0.590E+00 0.535E+00 -.732E+00   0.309E-01 -.710E-02 0.576E-01   -.844E-04 0.102E-03 -.184E-02
   -.500E+00 0.504E+00 0.688E+00   0.582E+00 -.541E+00 -.745E+00   0.332E-01 0.277E-02 0.576E-01   -.167E-03 -.318E-03 -.166E-02
   0.135E-02 -.543E-03 -.133E+00   0.902E-02 -.286E-02 0.132E+00   0.239E-02 -.128E-02 -.930E-03   0.513E-03 0.259E-04 0.213E-02
   -.418E-02 0.457E-03 -.144E+00   0.778E-03 -.279E-02 0.149E+00   0.353E-02 -.154E-02 -.131E-01   -.572E-03 0.280E-03 0.189E-02
   0.222E-02 0.555E-02 -.143E+00   0.509E-02 -.397E-03 0.149E+00   0.207E-02 -.251E-02 -.138E-01   -.620E-04 0.116E-03 0.190E-02
   0.495E-02 -.211E-02 -.144E+00   0.521E-02 -.545E-02 0.150E+00   0.140E-02 -.288E-03 -.123E-01   0.302E-03 -.503E-03 0.174E-02
   0.101E+00 -.334E-01 -.751E-01   -.120E+00 0.447E-01 0.805E-01   -.463E-02 0.145E-02 0.120E-01   -.486E-04 0.161E-03 0.380E-03
   -.125E+00 -.986E-01 -.228E+00   0.139E+00 0.111E+00 0.240E+00   0.530E-02 0.738E-02 0.147E-01   -.105E-03 0.548E-03 0.624E-03
   0.460E-01 0.131E+00 -.151E+00   -.476E-01 -.147E+00 0.160E+00   -.469E-02 -.419E-02 0.135E-01   -.395E-03 -.353E-03 0.511E-03
   -.301E-01 0.207E-05 -.343E-01   0.251E-01 0.280E-02 0.471E-01   -.330E-02 0.132E-02 -.168E-01   0.536E-03 -.519E-03 0.489E-03
   -.122E+00 0.910E-01 -.225E+00   0.137E+00 -.103E+00 0.238E+00   0.573E-02 -.391E-02 0.148E-01   -.514E-03 -.394E-03 -.419E-03
   0.103E+00 0.333E-01 -.756E-01   -.119E+00 -.389E-01 0.823E-01   -.468E-02 0.127E-02 0.112E-01   0.541E-03 0.781E-03 -.689E-03
   0.394E-01 -.129E+00 -.151E+00   -.466E-01 0.151E+00 0.160E+00   -.393E-02 0.694E-02 0.131E-01   -.972E-03 -.466E-03 -.570E-03
   -.288E-01 0.649E-03 -.347E-01   0.246E-01 0.278E-02 0.479E-01   -.447E-02 0.113E-02 -.151E-01   0.939E-03 0.243E-03 -.540E-03
   -.277E-02 0.960E-04 -.530E-01   0.364E-14 -.133E-13 0.411E-13   0.279E-02 -.105E-03 0.528E-01   -.421E-04 0.637E-05 -.942E-04

 POSITION                                       TOTAL-FORCE (eV/Angst)
      2.47237     -0.00011      1.01739        -0.276268      0.005778     -0.091198
      4.93431     -0.00022      1.00886         0.022751      0.003419     -0.008123
      1.23348      2.13645      1.00886        -0.022217     -0.019119     -0.008472
      3.70064      2.13634      1.00886        -0.020464      0.030125     -0.008343
      2.46715     -0.00011      5.04431        -0.011953      0.003528      0.003227
      4.93431     -0.00022      5.04431        -0.009522      0.002069      0.005361
      1.23348      2.13645      5.04431        -0.001389      0.007357      0.005766
      3.70064      2.13634      5.04431        -0.006362      0.002442      0.005975
     -1.23367      2.13656      3.02658         0.013400     -0.013895      0.005992
      1.23348      2.13645      3.02658        -0.003843     -0.009231     -0.005826
     -2.46735      4.27313      3.02658         0.000966      0.008012     -0.000317
     -0.00019      4.27302      3.02658         0.000545     -0.003893     -0.016188
     -1.23367      2.13656      7.06203        -0.004259      0.001597     -0.006609
      1.23348      2.13645      7.06203         0.017167      0.006485      0.005812
     -2.46735      4.27313      7.06203         0.002242     -0.018198      0.000259
     -0.00019      4.27302      7.06203        -0.003730     -0.004180     -0.014568
     -0.00019      1.42441      1.00886         0.013571     -0.004381      0.013785
      2.46696      1.42430      1.00886         0.063840     -0.005644     -0.000144
     -1.23387      3.56098      1.00886         0.115023      0.026563      0.000802
      1.23329      3.56086      1.00886         0.114987     -0.034524     -0.000952
     -0.00019      1.42441      5.04431         0.013250     -0.004660     -0.000178
      2.46696      1.42430      5.04431        -0.000406     -0.003591     -0.005451
     -1.23387      3.56098      5.04431         0.009319      0.002737     -0.005729
      1.23329      3.56086      5.04431         0.011869     -0.008332     -0.004624
      1.23367      0.71204      3.02658        -0.023581      0.012927      0.017802
      3.70083      0.71193      3.02658         0.019317      0.020097      0.027850
     -0.00000      2.84860      3.02658        -0.006690     -0.019997      0.022853
      2.46715      2.84849      3.02658        -0.007713      0.003601     -0.003420
      1.23367      0.71204      7.06203         0.020725     -0.016309      0.027222
      3.70083      0.71193      7.06203        -0.020667     -0.003534      0.017282
     -0.00000      2.84860      7.06203        -0.012145      0.027949      0.022500
      2.46715      2.84849      7.06203        -0.007763      0.004801     -0.002347
    total drift:                               -0.000026     -0.000003     -0.000341

  FREE ENERGIE OF THE ION-ELECTRON SYSTEM (eV)
  free  energy   TOTEN  =      -261.88410175 eV

  energy  without entropy=     -261.88410175  energy(sigma->0) =     -261.88410175

 BZINTS: Fermi energy: 11.684691;128.000000 electrons
         Band energy: 164.959472;  BLOECHL correction: -0.116425