 vasp.5.3.5 31Mar14 (build Nov 02 2014 15:17:37) complex

 executed on        ion-Intel-MKL date 2016.08.12  21:53:21

 INCAR:
 POTCAR:   PAW_PBE C 08Apr2002
 POTCAR:   PAW_PBE C 08Apr2002
   VRHFIN =C: s2p2

   TITEL  = PAW_PBE C 08Apr2002
   POMASS =   12.011; ZVAL   =    4.000    mass and valenz
   ENMAX  =  400.000; ENMIN  =  300.000 eV
   QCUT   =   -5.516; QGAM   =   11.032    optimization parameters

   Description
     l     E      TYP  RCUT    TYP  RCUT
     0   .000     23  1.200
     0   .000     23  1.200
     1   .000     23  1.500
     1  2.500     23  1.500
     2   .000      7  1.500

 PAW_PBE C 08Apr2002                    :

 POSCAR: CIF file
  positions in direct lattice
  velocities in cartesian coordinates
 exchange correlation table for  LEXCH =        8
   RHO(1)=    0.500       N(1)  =     2000
   RHO(2)=  100.500       N(2)  =     4000

 ion  position               nearest neighbor table
   1  1.000  0.000  0.250-   3 1.42   3 1.42   3 1.42
   2  0.000  1.000  0.750-   4 1.42   4 1.42   4 1.42
   3  0.333  0.667  0.250-   1 1.42   1 1.42   1 1.42
   4  0.667  0.333  0.750-   2 1.42   2 1.42   2 1.42

  LATTYP: Found a base centered orthorhombic cell.
 ALAT       =     2.4669628383
 B/A-ratio  =     1.7322311103
 C/A-ratio  =     2.5900086932

  Lattice vectors:

 A1 = (   2.4671554424,  -0.0001112000,   0.0000000000)
 A2 = (  -1.2336740232,   2.1365636881,   0.0000000000)
 A3 = (   0.0000000000,   0.0000000000,   6.3894551970)

Analysis of symmetry for initial positions (statically):
 Subroutine PRICEL returns:
 Original cell was already a primitive cell.

 Routine SETGRP: Setting up the symmetry group for a
 base centered orthorhombic supercell.

 Subroutine GETGRP returns: Found  8 space group operations
 (whereof  4 operations were pure point group operations)
 out of a pool of  8 trial point group operations.

The static configuration has the point symmetry C_2h.
 The point group associated with its full space group is D_2h.

Analysis of symmetry for dynamics (positions and initial velocities):
 Subroutine PRICEL returns:
 Original cell was already a primitive cell.

 Routine SETGRP: Setting up the symmetry group for a
 base centered orthorhombic supercell.

 Subroutine GETGRP returns: Found  8 space group operations
 (whereof  4 operations were pure point group operations)
 out of a pool of  8 trial point group operations.

The dynamic configuration has the point symmetry C_2h.
 The point group associated with its full space group is D_2h.

 KPOINTS: B4C B11C-CBC

Automatic generation of k-mesh.
Space group operators:
 irot       det(A)        alpha          n_x          n_y          n_z        tau_x        tau_y        tau_z
    1     1.000000     0.000001     1.000000     0.000000     0.000000     0.000000     0.000000     0.000000
    2    -1.000000     0.000001     1.000000     0.000000     0.000000     0.000000     0.000000     0.000000
    3     1.000000   180.000000    -0.500000    -0.866025     0.000000     0.000000     0.000000     0.000000
    4    -1.000000   180.000000    -0.500000    -0.866025     0.000000     0.000000     0.000000     0.000000
    5     1.000000   179.999999     0.000000     0.000000     1.000000     0.000000     0.000000     0.500000
    6    -1.000000   179.999999     0.000000     0.000000     1.000000     0.000000     0.000000     0.500000
    7     1.000000   179.999999     0.866025    -0.500000     0.000000     0.000000     0.000000     0.500000
    8    -1.000000   179.999999     0.866025    -0.500000     0.000000     0.000000     0.000000     0.500000

 Subroutine IBZKPT returns following result:

 Found    455 irreducible k-points:

 Following reciprocal coordinates:
            Coordinates               Weight
  0.000000  0.000000  0.000000      1.000000
  0.055556 -0.000000  0.000000      4.000000
  0.111111 -0.000000  0.000000      4.000000
  0.166667 -0.000000  0.000000      4.000000
  0.222222 -0.000000  0.000000      4.000000
  0.277778  0.000000  0.000000      4.000000
  0.333333 -0.000000  0.000000      4.000000
  0.388889 -0.000000  0.000000      4.000000
  0.444444 -0.000000  0.000000      4.000000
  0.500000 -0.000000  0.000000      2.000000
  0.055556  0.055556  0.000000      2.000000
  0.111111  0.055556  0.000000      4.000000
  0.166667  0.055556  0.000000      4.000000
  0.222222  0.055556  0.000000      4.000000
  0.277778  0.055556  0.000000      4.000000
  0.333333  0.055556  0.000000      4.000000
  0.388889  0.055556  0.000000      4.000000
  0.444444  0.055556  0.000000      4.000000
  0.500000  0.055556  0.000000      4.000000
 -0.444444  0.055556  0.000000      4.000000
 -0.388889  0.055556  0.000000      4.000000
 -0.333333  0.055556  0.000000      4.000000
 -0.277778  0.055556  0.000000      4.000000
 -0.222222  0.055556  0.000000      4.000000
 -0.166667  0.055556  0.000000      4.000000
 -0.111111  0.055556  0.000000      4.000000
 -0.055556  0.055556  0.000000      2.000000
  0.111111  0.111111  0.000000      2.000000
  0.166667  0.111111  0.000000      4.000000
  0.222222  0.111111  0.000000      4.000000
  0.277778  0.111111  0.000000      4.000000
  0.333333  0.111111  0.000000      4.000000
  0.388889  0.111111  0.000000      4.000000
  0.444444  0.111111  0.000000      4.000000
  0.500000  0.111111  0.000000      4.000000
 -0.444444  0.111111  0.000000      4.000000
 -0.388889  0.111111  0.000000      4.000000
 -0.333333  0.111111  0.000000      4.000000
 -0.277778  0.111111  0.000000      4.000000
 -0.222222  0.111111  0.000000      4.000000
 -0.166667  0.111111  0.000000      4.000000
 -0.111111  0.111111  0.000000      2.000000
  0.166667  0.166667  0.000000      2.000000
  0.222222  0.166667  0.000000      4.000000
  0.277778  0.166667  0.000000      4.000000
  0.333333  0.166667  0.000000      4.000000
  0.388889  0.166667  0.000000      4.000000
  0.444444  0.166667  0.000000      4.000000
  0.500000  0.166667  0.000000      4.000000
 -0.444444  0.166667  0.000000      4.000000
 -0.388889  0.166667  0.000000      4.000000
 -0.333333  0.166667  0.000000      4.000000
 -0.277778  0.166667  0.000000      4.000000
 -0.222222  0.166667  0.000000      4.000000
 -0.166667  0.166667  0.000000      2.000000
  0.222222  0.222222  0.000000      2.000000
  0.277778  0.222222  0.000000      4.000000
  0.333333  0.222222  0.000000      4.000000
  0.388889  0.222222  0.000000      4.000000
  0.444444  0.222222  0.000000      4.000000
[...]
  0.388889  0.333333  0.500000      4.000000
  0.444444  0.333333  0.500000      4.000000
  0.500000  0.333333  0.500000      4.000000
 -0.444444  0.333333  0.500000      4.000000
 -0.388889  0.333333  0.500000      4.000000
 -0.333333  0.333333  0.500000      2.000000
  0.388889  0.388889  0.500000      2.000000
  0.444444  0.388889  0.500000      4.000000
  0.500000  0.388889  0.500000      4.000000
 -0.444444  0.388889  0.500000      4.000000
 -0.388889  0.388889  0.500000      2.000000
  0.444444  0.444444  0.500000      2.000000
  0.500000  0.444444  0.500000      4.000000
 -0.444444  0.444444  0.500000      2.000000
  0.500000  0.500000  0.500000      1.000000

 Following cartesian coordinates:
            Coordinates               Weight
  0.000000  0.000000  0.000000      1.000000
  0.022519  0.013002  0.000000      4.000000
  0.045037  0.026005  0.000000      4.000000
  0.067556  0.039007  0.000000      4.000000
  0.090075  0.052010  0.000000      4.000000
  0.112593  0.065012  0.000000      4.000000
  0.135112  0.078015  0.000000      4.000000
  0.157631  0.091017  0.000000      4.000000
  0.180149  0.104020  0.000000      4.000000
  0.202668  0.117022  0.000000      2.000000
  0.022520  0.039005  0.000000      2.000000
  0.045038  0.052008  0.000000      4.000000
  0.067557  0.065010  0.000000      4.000000
  0.090076  0.078013  0.000000      4.000000
  0.112594  0.091015  0.000000      4.000000
  0.135113  0.104018  0.000000      4.000000
  0.157632  0.117020  0.000000      4.000000
  0.180150  0.130023  0.000000      4.000000
  0.202669  0.143025  0.000000      4.000000
 -0.180148 -0.078017  0.000000      4.000000
 -0.157629 -0.065015  0.000000      4.000000
 -0.135111 -0.052012  0.000000      4.000000
 -0.112592 -0.039010  0.000000      4.000000
 -0.090073 -0.026007  0.000000      4.000000
 -0.067555 -0.013005  0.000000      4.000000
 -0.045036 -0.000002  0.000000      4.000000
 -0.022517  0.013000  0.000000      2.000000
  0.045040  0.078011  0.000000      2.000000
  0.067558  0.091013  0.000000      4.000000
  0.090077  0.104016  0.000000      4.000000
  0.112596  0.117018  0.000000      4.000000
  0.135114  0.130021  0.000000      4.000000
  0.157633  0.143023  0.000000      4.000000
  0.180152  0.156026  0.000000      4.000000
  0.202670  0.169028  0.000000      4.000000
 -0.180147 -0.052014  0.000000      4.000000
 -0.157628 -0.039012  0.000000      4.000000
 -0.135110 -0.026009  0.000000      4.000000
 -0.112591 -0.013007  0.000000      4.000000
 -0.090072 -0.000004  0.000000      4.000000
 -0.067554  0.012998  0.000000      4.000000
 -0.045035  0.026001  0.000000      2.000000
  0.067559  0.117016  0.000000      2.000000
  0.090078  0.130019  0.000000      4.000000
  0.112597  0.143021  0.000000      4.000000
  0.135115  0.156024  0.000000      4.000000
  0.157634  0.169026  0.000000      4.000000
  0.180153  0.182029  0.000000      4.000000
  0.202671  0.195031  0.000000      4.000000
 -0.180146 -0.026011  0.000000      4.000000
 -0.157627 -0.013009  0.000000      4.000000
 -0.135108 -0.000006  0.000000      4.000000
 -0.112590  0.012996  0.000000      4.000000
 -0.090071  0.025999  0.000000      4.000000
 -0.067552  0.039001  0.000000      2.000000
  0.090079  0.156022  0.000000      2.000000
  0.112598  0.169024  0.000000      4.000000
  0.135117  0.182027  0.000000      4.000000
  0.157635  0.195029  0.000000      4.000000
  0.180154  0.208032  0.000000      4.000000
[...]
  0.157638  0.247035  0.078254      4.000000
  0.180156  0.260038  0.078254      4.000000
  0.202675  0.273040  0.078254      4.000000
 -0.180142  0.051998  0.078254      4.000000
 -0.157623  0.065000  0.078254      4.000000
 -0.135105  0.078003  0.078254      2.000000
  0.157639  0.273038  0.078254      2.000000
  0.180157  0.286041  0.078254      4.000000
  0.202676  0.299043  0.078254      4.000000
 -0.180141  0.078001  0.078254      4.000000
 -0.157622  0.091003  0.078254      2.000000
  0.180159  0.312044  0.078254      2.000000
  0.202677  0.325046  0.078254      4.000000
 -0.180140  0.104004  0.078254      2.000000
  0.202678  0.351049  0.078254      1.000000

 TETIRR: Found   3888 inequivalent tetrahedra from    15552

 I would recommend the setting:
   dimension x,y,z NGX =    20 NGY =   20 NGZ =   51
 SYSTEM =  graphite
 POSCAR =  CIF file

 Startparameter for this run:
   NWRITE =      2    write-flag & timer
   PREC   = accura    normal or accurate (medium, high low for compatibility)
   ISTART =      0    job   : 0-new  1-cont  2-samecut
   ICHARG =      2    charge: 1-file 2-atom 10-const
   ISPIN  =      1    spin polarized calculation?
   LNONCOLLINEAR =      F non collinear calculations
   LSORBIT =      F    spin-orbit coupling
[...]
 k-point 29 :   0.1667 0.1111 0.0000  plane waves:    1116
 k-point 30 :   0.2222 0.1111 0.0000  plane waves:    1117
 k-point 31 :   0.2778 0.1111 0.0000  plane waves:    1120
 k-point 32 :   0.3333 0.1111 0.0000  plane waves:    1125
 k-point 33 :   0.3889 0.1111 0.0000  plane waves:    1123
 k-point 34 :   0.4444 0.1111 0.0000  plane waves:    1127
 k-point 35 :   0.5000 0.1111 0.0000  plane waves:    1123
 k-point 36 :  -0.4444 0.1111 0.0000  plane waves:    1125
 k-point 37 :  -0.3889 0.1111 0.0000  plane waves:    1120
 k-point 38 :  -0.3333 0.1111 0.0000  plane waves:    1117
 k-point 39 :  -0.2778 0.1111 0.0000  plane waves:    1116
 k-point 40 :  -0.2222 0.1111 0.0000  plane waves:    1117
 k-point 41 :  -0.1667 0.1111 0.0000  plane waves:    1120
 k-point 42 :  -0.1111 0.1111 0.0000  plane waves:    1105
 k-point 43 :   0.1667 0.1667 0.0000  plane waves:    1125
 k-point 44 :   0.2222 0.1667 0.0000  plane waves:    1126
 k-point 45 :   0.2778 0.1667 0.0000  plane waves:    1123
 k-point 46 :   0.3333 0.1667 0.0000  plane waves:    1129
 k-point 47 :   0.3889 0.1667 0.0000  plane waves:    1131
 k-point 48 :   0.4444 0.1667 0.0000  plane waves:    1131
 k-point 49 :   0.5000 0.1667 0.0000  plane waves:    1129
 k-point 50 :  -0.4444 0.1667 0.0000  plane waves:    1123
 k-point 51 :  -0.3889 0.1667 0.0000  plane waves:    1126
 k-point 52 :  -0.3333 0.1667 0.0000  plane waves:    1125
 k-point 53 :  -0.2778 0.1667 0.0000  plane waves:    1116
 k-point 54 :  -0.2222 0.1667 0.0000  plane waves:    1115
 k-point 55 :  -0.1667 0.1667 0.0000  plane waves:    1119
 k-point 56 :   0.2222 0.2222 0.0000  plane waves:    1131
 k-point 57 :   0.2778 0.2222 0.0000  plane waves:    1138
 k-point 58 :   0.3333 0.2222 0.0000  plane waves:    1138
 k-point 59 :   0.3889 0.2222 0.0000  plane waves:    1137
 k-point 60 :   0.4444 0.2222 0.0000  plane waves:    1138
[...]
 k-point 85 :   0.5000 0.3889 0.0000  plane waves:    1123
 k-point 86 :  -0.4444 0.3889 0.0000  plane waves:    1124
 k-point 87 :  -0.3889 0.3889 0.0000  plane waves:    1130
 k-point 88 :   0.4444 0.4444 0.0000  plane waves:    1127
 k-point 89 :   0.5000 0.4444 0.0000  plane waves:    1124
 k-point 90 :  -0.4444 0.4444 0.0000  plane waves:    1132
 k-point 91 :   0.5000 0.5000 0.0000  plane waves:    1112
 k-point 92 :   0.0000 0.0000 0.1250  plane waves:    1099
 k-point 93 :   0.0556-0.0000 0.1250  plane waves:    1109
 k-point 94 :   0.1111-0.0000 0.1250  plane waves:    1109
 k-point 95 :   0.1667-0.0000 0.1250  plane waves:    1116
 k-point 96 :   0.2222-0.0000 0.1250  plane waves:    1121
 k-point 97 :   0.2778 0.0000 0.1250  plane waves:    1120
 k-point 98 :   0.3333-0.0000 0.1250  plane waves:    1123
 k-point 99 :   0.3889-0.0000 0.1250  plane waves:    1126
 k-point ** :   0.4444-0.0000 0.1250  plane waves:    1119
 k-point ** :   0.5000-0.0000 0.1250  plane waves:    1124
 k-point ** :   0.0556 0.0556 0.1250  plane waves:    1108
 k-point ** :   0.1111 0.0556 0.1250  plane waves:    1113
 k-point ** :   0.1667 0.0556 0.1250  plane waves:    1118
 k-point ** :   0.2222 0.0556 0.1250  plane waves:    1121
 k-point ** :   0.2778 0.0556 0.1250  plane waves:    1120
 k-point ** :   0.3333 0.0556 0.1250  plane waves:    1122
 k-point ** :   0.3889 0.0556 0.1250  plane waves:    1122
 k-point ** :   0.4444 0.0556 0.1250  plane waves:    1124
 k-point ** :   0.5000 0.0556 0.1250  plane waves:    1124
 k-point ** :  -0.4444 0.0556 0.1250  plane waves:    1122
 k-point ** :  -0.3889 0.0556 0.1250  plane waves:    1122
 k-point ** :  -0.3333 0.0556 0.1250  plane waves:    1120
 k-point ** :  -0.2778 0.0556 0.1250  plane waves:    1121
 k-point ** :  -0.2222 0.0556 0.1250  plane waves:    1118
 k-point ** :  -0.1667 0.0556 0.1250  plane waves:    1113
 k-point ** :  -0.1111 0.0556 0.1250  plane waves:    1108
 k-point ** :  -0.0556 0.0556 0.1250  plane waves:    1109
 k-point ** :   0.1111 0.1111 0.1250  plane waves:    1112
 k-point ** :   0.1667 0.1111 0.1250  plane waves:    1120
 k-point ** :   0.2222 0.1111 0.1250  plane waves:    1119
 k-point ** :   0.2778 0.1111 0.1250  plane waves:    1118
 k-point ** :   0.3333 0.1111 0.1250  plane waves:    1120
 k-point ** :   0.3889 0.1111 0.1250  plane waves:    1127
 k-point ** :   0.4444 0.1111 0.1250  plane waves:    1132
 k-point ** :   0.5000 0.1111 0.1250  plane waves:    1127
 k-point ** :  -0.4444 0.1111 0.1250  plane waves:    1121
 k-point ** :  -0.3889 0.1111 0.1250  plane waves:    1118
 k-point ** :  -0.3333 0.1111 0.1250  plane waves:    1119
 k-point ** :  -0.2778 0.1111 0.1250  plane waves:    1120
 k-point ** :  -0.2222 0.1111 0.1250  plane waves:    1112
 k-point ** :  -0.1667 0.1111 0.1250  plane waves:    1113
 k-point ** :  -0.1111 0.1111 0.1250  plane waves:    1110
 k-point ** :   0.1667 0.1667 0.1250  plane waves:    1117
 k-point ** :   0.2222 0.1667 0.1250  plane waves:    1123
 k-point ** :   0.2778 0.1667 0.1250  plane waves:    1120
 k-point ** :   0.3333 0.1667 0.1250  plane waves:    1132
 k-point ** :   0.3889 0.1667 0.1250  plane waves:    1131
 k-point ** :   0.4444 0.1667 0.1250  plane waves:    1131
 k-point ** :   0.5000 0.1667 0.1250  plane waves:    1132
 k-point ** :  -0.4444 0.1667 0.1250  plane waves:    1120
 k-point ** :  -0.3889 0.1667 0.1250  plane waves:    1123
 k-point ** :  -0.3333 0.1667 0.1250  plane waves:    1117
 k-point ** :  -0.2778 0.1667 0.1250  plane waves:    1120
 k-point ** :  -0.2222 0.1667 0.1250  plane waves:    1118
 k-point ** :  -0.1667 0.1667 0.1250  plane waves:    1116
 k-point ** :   0.2222 0.2222 0.1250  plane waves:    1131
 k-point ** :   0.2778 0.2222 0.1250  plane waves:    1134
 k-point ** :   0.3333 0.2222 0.1250  plane waves:    1134
 k-point ** :   0.3889 0.2222 0.1250  plane waves:    1134
 k-point ** :   0.4444 0.2222 0.1250  plane waves:    1134
 k-point ** :   0.5000 0.2222 0.1250  plane waves:    1134
 k-point ** :  -0.4444 0.2222 0.1250  plane waves:    1130
 k-point ** :  -0.3889 0.2222 0.1250  plane waves:    1123
 k-point ** :  -0.3333 0.2222 0.1250  plane waves:    1119
 k-point ** :  -0.2778 0.2222 0.1250  plane waves:    1121
 k-point ** :  -0.2222 0.2222 0.1250  plane waves:    1121
 k-point ** :   0.2778 0.2778 0.1250  plane waves:    1147
 k-point ** :   0.3333 0.2778 0.1250  plane waves:    1146
[...]
 k-point ** :   0.3889 0.3333 0.5000  plane waves:    1138
 k-point ** :   0.4444 0.3333 0.5000  plane waves:    1134
 k-point ** :   0.5000 0.3333 0.5000  plane waves:    1130
 k-point ** :  -0.4444 0.3333 0.5000  plane waves:    1134
 k-point ** :  -0.3889 0.3333 0.5000  plane waves:    1126
 k-point ** :  -0.3333 0.3333 0.5000  plane waves:    1132
 k-point ** :   0.3889 0.3889 0.5000  plane waves:    1142
 k-point ** :   0.4444 0.3889 0.5000  plane waves:    1136
 k-point ** :   0.5000 0.3889 0.5000  plane waves:    1136
 k-point ** :  -0.4444 0.3889 0.5000  plane waves:    1126
 k-point ** :  -0.3889 0.3889 0.5000  plane waves:    1128
 k-point ** :   0.4444 0.4444 0.5000  plane waves:    1126
 k-point ** :   0.5000 0.4444 0.5000  plane waves:    1130
 k-point ** :  -0.4444 0.4444 0.5000  plane waves:    1126
 k-point ** :   0.5000 0.5000 0.5000  plane waves:    1128

 maximum and minimum number of plane-waves per node :       390      361

 maximum number of plane-waves:      1152
 maximum index in each direction:
   IXMAX=    5   IYMAX=    4   IZMAX=   12
   IXMIN=   -5   IYMIN=   -5   IZMIN=  -13

 WARNING: aliasing errors must be expected set NGX to  22 to avoid them
 NGY is ok and might be reduce to  20
 NGZ is ok and might be reduce to  52
 aliasing errors are usually negligible using standard VASP settings
 and one can safely disregard these warnings

 parallel 3D FFT for wavefunctions:
    minimum data exchange during FFTs selected (reduces bandwidth)
 parallel 3D FFT for charge:
    minimum data exchange during FFTs selected (reduces bandwidth)

 Broyden mixing: mesh for mixing (old mesh)
   NGX =  9   NGY =  9   NGZ = 25
  (NGX  = 40   NGY  = 40   NGZ  =108)
  gives a total of   2025 points

 initial charge density was supplied:
 charge density of overlapping atoms calculated
 number of electron      16.0000000 magnetization
 keeping initial charge density in first step

 Maximum index for augmentation-charges         1391 (set IRDMAX)

 First call to EWALD:  gamma=   0.549
 Maximum number of real-space cells 4x 4x 2
 Maximum number of reciprocal cells 2x 2x 5

 FEWALD executed in parallel

----------------------------------------- Iteration    1(   1)  ---------------------------------------

 BZINTS: Fermi energy: 14.506787; 16.000000 electrons
         Band energy:  -5.231481;  BLOECHL correction: -0.443352

 eigenvalue-minimisations  : 10920
 total energy-change (2. order) : 0.5290448E+02  (-0.9082773E+03)
 number of electron      16.0000000 magnetization
 augmentation part       16.0000000 magnetization

 Free energy of the ion-electron system (eV)
  alpha Z        PSCENC =        38.70855815
  Ewald energy   TEWEN  =      -490.14034974
  -Hartree energ DENC   =      -129.90136141
  -exchange      EXHF   =         0.00000000
  -V(xc)+E(xc)   XCENC  =        55.46988514
  PAW double counting   =       151.32577238     -155.92769107
  entropy T*S    EENTRO =         0.00000000
  eigenvalues    EBANDS =        -5.23148073
  atomic energy  EATOM  =       588.60115103
  free energy    TOTEN  =        52.90448376 eV

  energy without entropy =       52.90448376  energy(sigma->0) =       52.90448376

[...]

 eigenvalue-minimisations  : 15112
 total energy-change (2. order) :-0.8810416E+02  (-0.8134336E+02)
 number of electron      16.0000000 magnetization
 augmentation part       16.0000000 magnetization

[...]

 Broyden mixing:
  rms(total) = 0.77883E+00    rms(broyden)= 0.77874E+00
  rms(prec ) = 0.12843E+01
  weight for this iteration     100.00

[...]

 eigenvalues of (default mixing * dielectric matrix)
  average eigenvalue GAMMA=   2.0357
  2.0357

[...]

 eigenvalue-minimisations  : 13756
 total energy-change (2. order) :-0.1369157E-05  (-0.3350198E-06)
 number of electron      15.9999999 magnetization
 augmentation part        0.3831152 magnetization

 Broyden mixing:
  rms(total) = 0.16040E-03    rms(broyden)= 0.16029E-03
  rms(prec ) = 0.27722E-03
  weight for this iteration     100.00

 eigenvalues of (default mixing * dielectric matrix)
  average eigenvalue GAMMA=   1.9570
  2.9366  2.4507  2.4507  1.9322  0.9860  0.9860

[...]

----------------------------------------- Iteration    1(  12)  ---------------------------------------

 BZINTS: Fermi energy:  5.093051; 16.000000 electrons
         Band energy: -63.704344;  BLOECHL correction: -0.000102

 eigenvalue-minimisations  :  9348
 total energy-change (2. order) : 0.2614843E-07  (-0.6277458E-07)
 number of electron      15.9999999 magnetization
 augmentation part        0.3831152 magnetization

 Free energy of the ion-electron system (eV)
  alpha Z        PSCENC =        38.70855815
  Ewald energy   TEWEN  =      -490.14034974
  -Hartree energ DENC   =      -162.76630579
  -exchange      EXHF   =         0.00000000
  -V(xc)+E(xc)   XCENC  =        57.68221275
  PAW double counting   =       277.55622078     -282.72092114
  entropy T*S    EENTRO =         0.00000000
  eigenvalues    EBANDS =       -63.70434439
  atomic energy  EATOM  =       588.60115103
  free energy    TOTEN  =       -36.78377835 eV

  energy without entropy =      -36.78377835  energy(sigma->0) =      -36.78377835

 average (electrostatic) potential at core
  the test charge radii are     0.6991
  (the norm of the test charge is              1.0000)
       1 -50.2888       2 -50.2888       3 -50.2413       4 -50.2413

 E-fermi :   5.0931     XC(G=0): -10.6375     alpha+bet :-11.9230

 k-point     1 :       0.0000    0.0000    0.0000
  band No.  band energies     occupation
      1     -14.5703      2.00000
      2     -14.1365      2.00000
      3      -3.6059      2.00000
      4      -1.1029      2.00000
      5       2.1135      2.00000
      6       2.1182      2.00000
      7       2.1441      2.00000
      8       2.1488      2.00000
      9       9.8799      0.00000
     10      13.4267      0.00000
     11      13.4302      0.00000
     12      13.5085      0.00000

[...]

 k-point   455 :       0.5000    0.5000    0.5000
  band No.  band energies     occupation
      1      -9.1201      2.00000
      2      -9.1201      2.00000
      3      -8.0727      2.00000
      4      -8.0727      2.00000
      5      -1.2419      2.00000
      6      -1.2419      2.00000
      7       2.7595      2.00000
      8       2.7595      2.00000
      9       6.7570      0.00000
     10       6.7570      0.00000
     11      12.5038      0.00000
     12      12.5038      0.00000

 soft charge-density along one line, spin component           1
         0         1         2         3         4         5         6         7         8         9
 total charge-density along one line

------------------------ aborting loop because EDIFF is reached ----------------------------------------

         DFTD3 V3.0 Rev 1
 IVDW         = 11
 DF pbe
 parameters
 VDW_S6       =    1.0000
 VDW_S8       =    0.7220
 VDW_SR       =    1.2170
 rs18     =    1.0000
 alpha6   =   14.0000
 alpha8   =   16.0000
 k1-k3    =   16.0000    1.3333   -4.0000
 VDW_RADIUS   =   50.2022 A
 VDW_CNRADIUS =   21.1671 A
 Edisp (eV)   -0.40825

 E6    (eV) :    -0.2474
 E8    (eV) :    -0.1609
 % E8        : 39.40

  FORCE on cell =-STRESS in cart. coord.  units (eV):
  Direction    XX          YY          ZZ          XY          YZ          ZX
  Alpha Z    38.70856    38.70856    38.70856
  Ewald      47.63224    47.58236  -585.35548    -0.04320     0.00000     0.00000
  Hartree   140.24014   140.23315  -117.70670    -0.00606    -0.00000    -0.00000
  E(xc)     -58.49258   -58.49290   -60.54395    -0.00028     0.00000     0.00000
  Local    -392.80867  -392.76003   464.65239     0.04213    -0.00000    -0.00000
  n-local   -14.40472   -13.64066   -12.86185    -0.22274     0.01486    -0.01503
  augment    -1.54467    -1.54459    -1.41594     0.00007     0.00000    -0.00000
  Kinetic   243.86013   236.49506   275.73812     2.13722    -0.19187     0.18594
  Fock        0.00000     0.00000     0.00000     0.00000     0.00000     0.00000
  vdW        -0.06042    -0.06033    -0.48564     0.00008    -0.00000    -0.00000
  Total      -0.17438    -0.17502     0.72951    -0.00056     0.00000     0.00000
  in kB      -8.29527    -8.32590    34.70399    -0.02652     0.00000     0.00000

 VOLUME and BASIS-vectors are now :
  energy-cutoff  :      600.00
  volume of cell :       33.68
      direct lattice vectors                 reciprocal lattice vectors
     2.467155442 -0.000111200  0.000000000     0.405335638  0.234045000  0.000000000
    -1.233674023  2.136563688  0.000000000     0.000021096  0.468053460  0.000000000
     0.000000000  0.000000000  6.389455197     0.000000000  0.000000000  0.156507866

  length of vectors
     2.467155445  2.467155445  6.389455197     0.468053460  0.468053460  0.156507866

 FORCES acting on ions
    electron-ion (+dipol)            ewald-force                    non-local-force                 convergence-correction
   -.417E-03 0.229E-03 0.358E-12   -.268E-02 0.153E-02 -.175E-13   -.223E-02 0.129E-02 -.130E-17   0.120E-05 -.691E-06 0.119E-13
   0.407E-03 -.247E-03 0.273E-12   0.266E-02 -.155E-02 0.175E-13   0.223E-02 -.129E-02 0.434E-18   -.120E-05 0.691E-06 0.393E-14
   -.290E-02 0.168E-02 0.165E-12   0.272E-02 -.156E-02 -.175E-13   0.673E-03 -.388E-03 -.173E-17   -.770E-06 0.445E-06 0.979E-14
   0.290E-02 -.167E-02 0.971E-14   -.271E-02 0.158E-02 0.175E-13   -.673E-03 0.388E-03 0.867E-18   0.770E-06 -.444E-06 0.198E-14
   -.678E-05 -.117E-04 0.806E-12   0.868E-14 0.741E-14 0.000E+00   0.000E+00 0.555E-16 -.173E-17   -.651E-10 -.113E-09 0.276E-13

 POSITION                                       TOTAL-FORCE (eV/Angst)
      2.46715     -0.00011      1.59736        -0.005313      0.003067     -0.000000
     -1.23367      2.13656      4.79209         0.005313     -0.003067     -0.000000
     -0.00019      1.42441      1.59736         0.000485     -0.000280      0.000000
      1.23367      0.71204      4.79209        -0.000485      0.000280     -0.000000
    total drift:                               -0.000007     -0.000012      0.000000

  FREE ENERGIE OF THE ION-ELECTRON SYSTEM (eV)
  free  energy   TOTEN  =       -37.19202616 eV

  energy  without entropy=      -37.19202616  energy(sigma->0) =      -37.19202616

 reached required accuracy - stopping structural energy minimisation
 BZINTS: Fermi energy:  5.093051; 16.000000 electrons
         Band energy: -63.704344;  BLOECHL correction: -0.000102