 vasp.5.3.5 31Mar14 (build Nov 02 2014 15:17:37) complex

 executed on        ion-Intel-MKL date 2016.08.14  15:47:10

 INCAR:
 POTCAR:   PAW_PBE C 08Apr2002
 POTCAR:   PAW_PBE C 08Apr2002
   VRHFIN =C: s2p2

   TITEL  = PAW_PBE C 08Apr2002
   POMASS =   12.011; ZVAL   =    4.000    mass and valenz
   ENMAX  =  400.000; ENMIN  =  300.000 eV
   QCUT   =   -5.516; QGAM   =   11.032    optimization parameters

   Description
     l     E      TYP  RCUT    TYP  RCUT
     0   .000     23  1.200
     0   .000     23  1.200
     1   .000     23  1.500
     1  2.500     23  1.500
     2   .000      7  1.500

 PAW_PBE C 08Apr2002                    :

 POSCAR: CIF file
  positions in direct lattice
  velocities in cartesian coordinates
 exchange correlation table for  LEXCH =        8
   RHO(1)=    0.500       N(1)  =     2000
   RHO(2)=  100.500       N(2)  =     4000

 ion  position               nearest neighbor table
   1  0.999  0.001  0.250-   3 1.42   3 1.42   3 1.42   2 1.99   2 1.99
   2  0.001  0.999  0.750-   4 1.42   4 1.42   4 1.42   1 1.99   1 1.99
   3  0.333  0.667  0.250-   1 1.42   1 1.42   1 1.42
   4  0.667  0.333  0.750-   2 1.42   2 1.42   2 1.42

  LATTYP: Found a base centered orthorhombic cell.
 ALAT       =     2.4647750986
 B/A-ratio  =     1.7336081796
 C/A-ratio  =     1.6143665356

  Lattice vectors:

 A1 = (   2.4664372490,  -0.0009596430,   0.0000000000)
 A2 = (  -1.2340496996,   2.1355174929,   0.0000000000)
 A3 = (   0.0000000000,   0.0000000000,   3.9790504370)

Analysis of symmetry for initial positions (statically):
 Subroutine PRICEL returns:
 Original cell was already a primitive cell.

 Routine SETGRP: Setting up the symmetry group for a
 base centered orthorhombic supercell.

 Subroutine GETGRP returns: Found  8 space group operations
 (whereof  4 operations were pure point group operations)
 out of a pool of  8 trial point group operations.

The static configuration has the point symmetry C_2h.
 The point group associated with its full space group is D_2h.

Analysis of symmetry for dynamics (positions and initial velocities):
 Subroutine PRICEL returns:
 Original cell was already a primitive cell.

 Routine SETGRP: Setting up the symmetry group for a
 base centered orthorhombic supercell.

 Subroutine GETGRP returns: Found  8 space group operations
 (whereof  4 operations were pure point group operations)
 out of a pool of  8 trial point group operations.

The dynamic configuration has the point symmetry C_2h.
 The point group associated with its full space group is D_2h.

 KPOINTS: B4C B11C-CBC

Automatic generation of k-mesh.
Space group operators:
 irot       det(A)        alpha          n_x          n_y          n_z        tau_x        tau_y        tau_z
    1     1.000000     0.000000     1.000000     0.000000     0.000000     0.000000     0.000000     0.000000
    2    -1.000000     0.000000     1.000000     0.000000     0.000000     0.000000     0.000000     0.000000
    3     1.000000   180.000000    -0.500000    -0.866025     0.000000     0.000000     0.000000     0.000000
    4    -1.000000   180.000000    -0.500000    -0.866025     0.000000     0.000000     0.000000     0.000000
    5     1.000000   180.000000     0.000000     0.000000     1.000000     0.000000     0.000000     0.500000
    6    -1.000000   180.000000     0.000000     0.000000     1.000000     0.000000     0.000000     0.500000
    7     1.000000   180.000000     0.866025    -0.500000     0.000000     0.000000     0.000000     0.500000
    8    -1.000000   180.000000     0.866025    -0.500000     0.000000     0.000000     0.000000     0.500000

 Subroutine IBZKPT returns following result:

 Found    455 irreducible k-points:

 Following reciprocal coordinates:
            Coordinates               Weight
  0.000000  0.000000  0.000000      1.000000
  0.055556 -0.000000  0.000000      4.000000
  0.111111 -0.000000  0.000000      4.000000
  0.166667 -0.000000  0.000000      4.000000
  0.222222  0.000000  0.000000      4.000000
  0.277778  0.000000  0.000000      4.000000
  0.333333 -0.000000  0.000000      4.000000
  0.388889  0.000000  0.000000      4.000000
  0.444444  0.000000  0.000000      4.000000
  0.500000  0.000000  0.000000      2.000000
  0.055556  0.055556  0.000000      2.000000
  0.111111  0.055556  0.000000      4.000000
  0.166667  0.055556  0.000000      4.000000
  0.222222  0.055556  0.000000      4.000000
  0.277778  0.055556  0.000000      4.000000
  0.333333  0.055556  0.000000      4.000000
  0.388889  0.055556  0.000000      4.000000
  0.444444  0.055556  0.000000      4.000000
  0.500000  0.055556  0.000000      4.000000
 -0.444444  0.055556  0.000000      4.000000
 -0.388889  0.055556  0.000000      4.000000
 -0.333333  0.055556  0.000000      4.000000
 -0.277778  0.055556  0.000000      4.000000
 -0.222222  0.055556  0.000000      4.000000
 -0.166667  0.055556  0.000000      4.000000
 -0.111111  0.055556  0.000000      4.000000
 -0.055556  0.055556  0.000000      2.000000
  0.111111  0.111111  0.000000      2.000000
  0.166667  0.111111  0.000000      4.000000
  0.222222  0.111111  0.000000      4.000000
  0.277778  0.111111  0.000000      4.000000
  0.333333  0.111111  0.000000      4.000000
  0.388889  0.111111  0.000000      4.000000
  0.444444  0.111111  0.000000      4.000000
  0.500000  0.111111  0.000000      4.000000
 -0.444444  0.111111  0.000000      4.000000
 -0.388889  0.111111  0.000000      4.000000
 -0.333333  0.111111  0.000000      4.000000
 -0.277778  0.111111  0.000000      4.000000
 -0.222222  0.111111  0.000000      4.000000
 -0.166667  0.111111  0.000000      4.000000
 -0.111111  0.111111  0.000000      2.000000
  0.166667  0.166667  0.000000      2.000000
  0.222222  0.166667  0.000000      4.000000
  0.277778  0.166667  0.000000      4.000000
  0.333333  0.166667  0.000000      4.000000
  0.388889  0.166667  0.000000      4.000000
  0.444444  0.166667  0.000000      4.000000
  0.500000  0.166667  0.000000      4.000000
 -0.444444  0.166667  0.000000      4.000000
 -0.388889  0.166667  0.000000      4.000000
 -0.333333  0.166667  0.000000      4.000000
 -0.277778  0.166667  0.000000      4.000000
 -0.222222  0.166667  0.000000      4.000000
 -0.166667  0.166667  0.000000      2.000000
  0.222222  0.222222  0.000000      2.000000
  0.277778  0.222222  0.000000      4.000000
  0.333333  0.222222  0.000000      4.000000
  0.388889  0.222222  0.000000      4.000000
  0.444444  0.222222  0.000000      4.000000
[...]
  0.388889  0.333333  0.500000      4.000000
  0.444444  0.333333  0.500000      4.000000
  0.500000  0.333333  0.500000      4.000000
 -0.444444  0.333333  0.500000      4.000000
 -0.388889  0.333333  0.500000      4.000000
 -0.333333  0.333333  0.500000      2.000000
  0.388889  0.388889  0.500000      2.000000
  0.444444  0.388889  0.500000      4.000000
  0.500000  0.388889  0.500000      4.000000
 -0.444444  0.388889  0.500000      4.000000
 -0.388889  0.388889  0.500000      2.000000
  0.444444  0.444444  0.500000      2.000000
  0.500000  0.444444  0.500000      4.000000
 -0.444444  0.444444  0.500000      2.000000
  0.500000  0.500000  0.500000      1.000000

 Following cartesian coordinates:
            Coordinates               Weight
  0.000000  0.000000  0.000000      1.000000
  0.022530  0.013019  0.000000      4.000000
  0.045059  0.026038  0.000000      4.000000
  0.067589  0.039058  0.000000      4.000000
  0.090119  0.052077  0.000000      4.000000
  0.112648  0.065096  0.000000      4.000000
  0.135178  0.078115  0.000000      4.000000
  0.157708  0.091134  0.000000      4.000000
  0.180237  0.104154  0.000000      4.000000
  0.202767  0.117173  0.000000      2.000000
  0.022540  0.039040  0.000000      2.000000
  0.045069  0.052059  0.000000      4.000000
  0.067599  0.065079  0.000000      4.000000
  0.090129  0.078098  0.000000      4.000000
  0.112659  0.091117  0.000000      4.000000
  0.135188  0.104136  0.000000      4.000000
  0.157718  0.117155  0.000000      4.000000
  0.180248  0.130175  0.000000      4.000000
  0.202777  0.143194  0.000000      4.000000
 -0.180227 -0.078133  0.000000      4.000000
 -0.157698 -0.065114  0.000000      4.000000
 -0.135168 -0.052094  0.000000      4.000000
 -0.112638 -0.039075  0.000000      4.000000
 -0.090109 -0.026056  0.000000      4.000000
 -0.067579 -0.013037  0.000000      4.000000
 -0.045049 -0.000018  0.000000      4.000000
 -0.022520  0.013002  0.000000      2.000000
  0.045080  0.078080  0.000000      2.000000
  0.067609  0.091099  0.000000      4.000000
  0.090139  0.104119  0.000000      4.000000
  0.112669  0.117138  0.000000      4.000000
  0.135198  0.130157  0.000000      4.000000
  0.157728  0.143176  0.000000      4.000000
  0.180258  0.156195  0.000000      4.000000
  0.202787  0.169215  0.000000      4.000000
 -0.180217 -0.052112  0.000000      4.000000
 -0.157688 -0.039093  0.000000      4.000000
 -0.135158 -0.026073  0.000000      4.000000
 -0.112628 -0.013054  0.000000      4.000000
 -0.090098 -0.000035  0.000000      4.000000
 -0.067569  0.012984  0.000000      4.000000
 -0.045039  0.026003  0.000000      2.000000
  0.067619  0.117120  0.000000      2.000000
  0.090149  0.130139  0.000000      4.000000
  0.112679  0.143159  0.000000      4.000000
  0.135208  0.156178  0.000000      4.000000
  0.157738  0.169197  0.000000      4.000000
  0.180268  0.182216  0.000000      4.000000
  0.202798  0.195236  0.000000      4.000000
 -0.180207 -0.026091  0.000000      4.000000
 -0.157677 -0.013072  0.000000      4.000000
 -0.135148 -0.000053  0.000000      4.000000
 -0.112618  0.012967  0.000000      4.000000
 -0.090088  0.025986  0.000000      4.000000
 -0.067559  0.039005  0.000000      2.000000
  0.090159  0.156160  0.000000      2.000000
  0.112689  0.169180  0.000000      4.000000
  0.135219  0.182199  0.000000      4.000000
  0.157748  0.195218  0.000000      4.000000
  0.180278  0.208237  0.000000      4.000000
[...]
  0.157769  0.247260  0.125658      4.000000
  0.180298  0.260279  0.125658      4.000000
  0.202828  0.273298  0.125658      4.000000
 -0.180177  0.051972  0.125658      4.000000
 -0.157647  0.064991  0.125658      4.000000
 -0.135117  0.078010  0.125658      2.000000
  0.157779  0.273281  0.125658      2.000000
  0.180308  0.286300  0.125658      4.000000
  0.202838  0.299319  0.125658      4.000000
 -0.180167  0.077993  0.125658      4.000000
 -0.157637  0.091012  0.125658      2.000000
  0.180318  0.312321  0.125658      2.000000
  0.202848  0.325340  0.125658      4.000000
 -0.180156  0.104013  0.125658      2.000000
  0.202858  0.351361  0.125658      1.000000

 TETIRR: Found   3888 inequivalent tetrahedra from    15552

 I would recommend the setting:
   dimension x,y,z NGX =    20 NGY =   20 NGZ =   32
 SYSTEM =  graphite
 POSCAR =  CIF file

 Startparameter for this run:
   NWRITE =      2    write-flag & timer
   PREC   = accura    normal or accurate (medium, high low for compatibility)
   ISTART =      0    job   : 0-new  1-cont  2-samecut
   ICHARG =      2    charge: 1-file 2-atom 10-const
   ISPIN  =      1    spin polarized calculation?
   LNONCOLLINEAR =      F non collinear calculations
[...]
 k-point ** :  -0.3333 0.1111 0.1250  plane waves:     693
 k-point ** :  -0.2778 0.1111 0.1250  plane waves:     694
 k-point ** :  -0.2222 0.1111 0.1250  plane waves:     689
 k-point ** :  -0.1667 0.1111 0.1250  plane waves:     694
 k-point ** :  -0.1111 0.1111 0.1250  plane waves:     695
 k-point ** :   0.1667 0.1667 0.1250  plane waves:     693
 k-point ** :   0.2222 0.1667 0.1250  plane waves:     691
 k-point ** :   0.2778 0.1667 0.1250  plane waves:     700
 k-point ** :   0.3333 0.1667 0.1250  plane waves:     702
 k-point ** :   0.3889 0.1667 0.1250  plane waves:     705
 k-point ** :   0.4444 0.1667 0.1250  plane waves:     705
 k-point ** :   0.5000 0.1667 0.1250  plane waves:     702
 k-point ** :  -0.4444 0.1667 0.1250  plane waves:     701
 k-point ** :  -0.3889 0.1667 0.1250  plane waves:     690
 k-point ** :  -0.3333 0.1667 0.1250  plane waves:     693
 k-point ** :  -0.2778 0.1667 0.1250  plane waves:     694
 k-point ** :  -0.2222 0.1667 0.1250  plane waves:     696
 k-point ** :  -0.1667 0.1667 0.1250  plane waves:     699
 k-point ** :   0.2222 0.2222 0.1250  plane waves:     701
 k-point ** :   0.2778 0.2222 0.1250  plane waves:     701
 k-point ** :   0.3333 0.2222 0.1250  plane waves:     704
 k-point ** :   0.3889 0.2222 0.1250  plane waves:     707
 k-point ** :   0.4444 0.2222 0.1250  plane waves:     704
 k-point ** :   0.5000 0.2222 0.1250  plane waves:     702
 k-point ** :  -0.4444 0.2222 0.1250  plane waves:     702
 k-point ** :  -0.3889 0.2222 0.1250  plane waves:     691
 k-point ** :  -0.3333 0.2222 0.1250  plane waves:     693
 k-point ** :  -0.2778 0.2222 0.1250  plane waves:     694
 k-point ** :  -0.2222 0.2222 0.1250  plane waves:     693
 k-point ** :   0.2778 0.2778 0.1250  plane waves:     707
 k-point ** :   0.3333 0.2778 0.1250  plane waves:     708
[...]
 k-point ** :   0.3889 0.3333 0.5000  plane waves:     708
 k-point ** :   0.4444 0.3333 0.5000  plane waves:     704
 k-point ** :   0.5000 0.3333 0.5000  plane waves:     704
 k-point ** :  -0.4444 0.3333 0.5000  plane waves:     708
 k-point ** :  -0.3889 0.3333 0.5000  plane waves:     704
 k-point ** :  -0.3333 0.3333 0.5000  plane waves:     698
 k-point ** :   0.3889 0.3889 0.5000  plane waves:     706
 k-point ** :   0.4444 0.3889 0.5000  plane waves:     704
 k-point ** :   0.5000 0.3889 0.5000  plane waves:     704
 k-point ** :  -0.4444 0.3889 0.5000  plane waves:     704
 k-point ** :  -0.3889 0.3889 0.5000  plane waves:     706
 k-point ** :   0.4444 0.4444 0.5000  plane waves:     698
 k-point ** :   0.5000 0.4444 0.5000  plane waves:     698
 k-point ** :  -0.4444 0.4444 0.5000  plane waves:     712
 k-point ** :   0.5000 0.5000 0.5000  plane waves:     704

 maximum and minimum number of plane-waves per node :       247      217

 maximum number of plane-waves:       732
 maximum index in each direction:
   IXMAX=    5   IYMAX=    4   IZMAX=    7
   IXMIN=   -5   IYMIN=   -5   IZMIN=   -8

 WARNING: aliasing errors must be expected set NGX to  22 to avoid them
 NGY is ok and might be reduce to  20
 NGZ is ok and might be reduce to  32
 aliasing errors are usually negligible using standard VASP settings
 and one can safely disregard these warnings

 parallel 3D FFT for wavefunctions:
    minimum data exchange during FFTs selected (reduces bandwidth)
 parallel 3D FFT for charge:
    minimum data exchange during FFTs selected (reduces bandwidth)

 Broyden mixing: mesh for mixing (old mesh)
   NGX =  9   NGY =  9   NGZ = 15
  (NGX  = 40   NGY  = 40   NGZ  = 64)
  gives a total of   1215 points

 initial charge density was supplied:
 charge density of overlapping atoms calculated
 number of electron      16.0000000 magnetization
 keeping initial charge density in first step

 Maximum index for augmentation-charges         1323 (set IRDMAX)

 First call to EWALD:  gamma=   0.643
 Maximum number of real-space cells 3x 3x 2
 Maximum number of reciprocal cells 3x 3x 4

 FEWALD executed in parallel

----------------------------------------- Iteration    1(   1)  ---------------------------------------

 BZINTS: Fermi energy: 20.351013; 16.000000 electrons
         Band energy:  77.439877;  BLOECHL correction: -0.525165

 eigenvalue-minimisations  : 10920
 total energy-change (2. order) : 0.3828775E+02  (-0.9629309E+03)
 number of electron      16.0000000 magnetization
 augmentation part       16.0000000 magnetization

 Free energy of the ion-electron system (eV)
  alpha Z        PSCENC =        62.21812023
  Ewald energy   TEWEN  =      -712.42309251
  -Hartree energ DENC   =       -31.16385117
  -exchange      EXHF   =         0.00000000
  -V(xc)+E(xc)   XCENC  =        58.21746730
  PAW double counting   =       151.32577238     -155.92769107
  entropy T*S    EENTRO =         0.00000000
  eigenvalues    EBANDS =        77.43987654
  atomic energy  EATOM  =       588.60115103
  free energy    TOTEN  =        38.28775273 eV

  energy without entropy =       38.28775273  energy(sigma->0) =       38.28775273

[...]

 eigenvalue-minimisations  : 14920
 total energy-change (2. order) :-0.6939405E+02  (-0.6338536E+02)
 number of electron      16.0000000 magnetization
 augmentation part       16.0000000 magnetization

[...]

 Broyden mixing:
  rms(total) = 0.77327E+00    rms(broyden)= 0.77316E+00
  rms(prec ) = 0.16224E+01
  weight for this iteration     100.00

[...]

 eigenvalues of (default mixing * dielectric matrix)
  average eigenvalue GAMMA=   2.0676
  2.0676

[...]

 average (electrostatic) potential at core
  the test charge radii are     0.6991
  (the norm of the test charge is              1.0000)
       1 -44.8087       2 -44.8087       3 -44.1719       4 -44.1719

 E-fermi :  12.0430     XC(G=0): -13.7328     alpha+bet :-19.1644

 k-point     1 :       0.0000    0.0000    0.0000
  band No.  band energies     occupation
      1     -11.7200      2.00000
      2      -5.8967      2.00000
      3      -1.7772      2.00000
      4       6.9590      2.00000
      5       6.9908      2.00000
      6       8.1033      2.00000
      7       8.1050      2.00000
      8      12.2173      0.67453
      9      18.1886      0.00000
     10      18.2184      0.00000
     11      19.4143      0.00000
     12      19.7317      0.00000

[...]

 soft charge-density along one line, spin component           1
         0         1         2         3         4         5         6         7         8         9
 total charge-density along one line

------------------------ aborting loop because EDIFF is reached ----------------------------------------

         DFTD3 V3.0 Rev 1
 IVDW         = 12
 DF pbe
 parameters
 VDW_S6       =    1.0000
 VDW_S8       =    0.7875
 VDW_A1       =    0.4289
 VDW_A2       =    4.4407
 k1-k3        =   16.0000    1.3333   -4.0000
 VDW_RADIUS   =   50.2022 A
 VDW_CNRADIUS =   21.1671 A
 Edisp (eV)   -0.83162

 E6    (eV) :    -0.5926
 E8    (eV) :    -0.2390
 % E8        : 28.74

  FORCE on cell =-STRESS in cart. coord.  units (eV):
  Direction    XX          YY          ZZ          XY          YZ          ZX
  Alpha Z    62.21812    62.21812    62.21812
  Ewald    -169.68400  -169.82313  -372.91667    -0.12049    -0.00000     0.00000
  Hartree    27.42470    27.39408    -6.18428    -0.02652    -0.00000    -0.00000
  E(xc)     -60.56617   -60.56691   -61.23942    -0.00064     0.00000     0.00000
  Local     -90.00928   -89.85613   123.18815     0.13263    -0.00000    -0.00000
  n-local   -13.80631   -12.75774   -15.75366    -0.31967    -0.05812     0.12451
  augment    -1.61301    -1.61289    -1.47108     0.00011     0.00000    -0.00000
  Kinetic   250.09435   244.40375   298.22828     1.73317     0.49578    -1.10012
  Fock        0.00000     0.00000     0.00000     0.00000     0.00000     0.00000
  vdW        -0.74283    -0.74266    -0.67521     0.00015    -0.00000     0.00000
  Total       0.96274     1.00931    25.39424     0.04034     0.00000    -0.00000
  in kB      73.61443    77.17586  1941.73850     3.08429     0.00000    -0.00000

 VOLUME and BASIS-vectors are now :
  energy-cutoff  :      600.00
  volume of cell :       20.95
      direct lattice vectors                 reciprocal lattice vectors
     2.466437249 -0.000959643  0.000000000     0.405534294  0.234345762  0.000000000
    -1.234049700  2.135517493  0.000000000     0.000182236  0.468375882  0.000000000
     0.000000000  0.000000000  3.979050437     0.000000000  0.000000000  0.251316241

[...]

 FORCES acting on ions
    electron-ion (+dipol)            ewald-force                    non-local-force                 convergence-correction
   -.744E-01 0.429E-01 0.350E-12   0.629E-01 -.363E-01 -.984E-14   -.123E-01 0.709E-02 -.694E-17   -.218E-05 0.126E-05 -.657E-14
   0.743E-01 -.429E-01 0.130E-12   -.629E-01 0.363E-01 0.986E-14   0.123E-01 -.709E-02 0.694E-17   0.218E-05 -.126E-05 0.808E-14
   0.513E-01 -.296E-01 0.773E-12   -.367E-01 0.212E-01 -.961E-14   0.798E-02 -.461E-02 -.139E-16   0.335E-05 -.193E-05 -.833E-14
   -.513E-01 0.296E-01 -.432E-12   0.367E-01 -.212E-01 0.959E-14   -.798E-02 0.461E-02 0.139E-16   -.335E-05 0.193E-05 0.119E-13
   -.732E-05 -.127E-04 0.822E-12   -.680E-15 -.347E-14 0.000E+00   0.000E+00 -.555E-16 0.000E+00   0.657E-10 0.114E-09 0.512E-14

 POSITION                                       TOTAL-FORCE (eV/Angst)
      2.46402      0.00044      0.99476        -0.023675      0.013669      0.000000
     -1.23163      2.13412      2.98429         0.023675     -0.013669      0.000000
     -0.00332      1.42496      0.99476         0.022827     -0.013179      0.000000
      1.23571      0.70960      2.98429        -0.022827      0.013179     -0.000000
    total drift:                               -0.000007     -0.000013      0.000000

  FREE ENERGIE OF THE ION-ELECTRON SYSTEM (eV)
  free  energy   TOTEN  =       -32.74291884 eV

  energy  without entropy=      -32.74291884  energy(sigma->0) =      -32.74291884

[...]

         DFTD3 V3.0 Rev 1
 Edisp (eV)   -0.83162

[...]

 d Force =-0.2028815E-03[-0.545E-03, 0.139E-03]  d Energy =-0.2136319E-03 0.108E-04
 d Force =-0.1459994E-02[-0.262E-02,-0.299E-03]  d Ewald  =-0.1461713E-02 0.172E-05

 Steepest descent step on ions:
 trial-energy change:    0.000214  1 .order    0.000203   -0.000139    0.000545
  (g-gl).g = 0.139E-03      g.g   = 0.139E-03  gl.gl    = 0.000E+00
 g(Force)  = 0.139E-03   g(Stress)= 0.000E+00 ortho     = 0.000E+00
 gamma     =   0.00000
 trial     =   1.00000
 opt step  =   0.18896  (harmonic =   0.20341) maximal distance =0.00021581
 next E    =   -32.742932   (d E  =  -0.00001)

 FEWALD executed in parallel

[...]

 eigenvalue-minimisations  : 12964
 total energy-change (2. order) :-0.2349854E-03  (-0.1200238E-02)
 number of electron      16.0000002 magnetization
 augmentation part        0.3929860 magnetization

[...]

 Broyden mixing:
  rms(total) = 0.31769E-03    rms(broyden)= 0.31756E-03
  rms(prec ) = 0.71823E-03
  weight for this iteration     100.00

 eigenvalues of (default mixing * dielectric matrix)
  average eigenvalue GAMMA=   1.5641
  1.1715  1.9567

[...]

----------------------------------------- Iteration    3(   4)  ---------------------------------------

 BZINTS: Fermi energy: 12.042952; 16.000000 electrons
         Band energy:  23.684230;  BLOECHL correction: -0.030430

 eigenvalue-minimisations  : 11560
 total energy-change (2. order) : 0.2508667E-06  (-0.3212269E-06)
 number of electron      16.0000002 magnetization
 augmentation part        0.3929539 magnetization

 Free energy of the ion-electron system (eV)
  alpha Z        PSCENC =        62.21812023
  Ewald energy   TEWEN  =      -712.42299435
  -Hartree energ DENC   =       -48.63442956
  -exchange      EXHF   =         0.00000000
  -V(xc)+E(xc)   XCENC  =        59.88635491
  PAW double counting   =       289.13485337     -294.37859926
  entropy T*S    EENTRO =         0.00000000
  eigenvalues    EBANDS =        23.68422970
  atomic energy  EATOM  =       588.60115103
  free energy    TOTEN  =       -31.91131392 eV

  energy without entropy =      -31.91131392  energy(sigma->0) =      -31.91131392

 average (electrostatic) potential at core
  the test charge radii are     0.6991
  (the norm of the test charge is              1.0000)
       1 -44.8087       2 -44.8087       3 -44.1719       4 -44.1719

 E-fermi :  12.0430     XC(G=0): -13.7328     alpha+bet :-19.1644

[...]

 k-point   455 :       0.5000    0.5000    0.5000
  band No.  band energies     occupation
      1      -4.3713      2.00000
      2      -4.3713      2.00000
      3      -3.2677      2.00000
      4      -3.2677      2.00000
      5       4.1017      2.00000
      6       4.1017      2.00000
      7       9.7630      2.00000
      8       9.7630      2.00000
      9      12.5507      0.00000
     10      12.5507      0.00000
     11      18.3643      0.00000
     12      18.3643      0.00000

 soft charge-density along one line, spin component           1
         0         1         2         3         4         5         6         7         8         9
 total charge-density along one line

------------------------ aborting loop because EDIFF is reached ----------------------------------------

         DFTD3 V3.0 Rev 1
 Edisp (eV)   -0.83162

 E6    (eV) :    -0.5926
 E8    (eV) :    -0.2390
 % E8        : 28.74

  FORCE on cell =-STRESS in cart. coord.  units (eV):
  Direction    XX          YY          ZZ          XY          YZ          ZX
  Alpha Z    62.21812    62.21812    62.21812
  Ewald    -169.78766  -169.71898  -372.91706     0.05948    -0.00000    -0.00000
  Hartree    27.41097    27.40780    -6.18427    -0.00274    -0.00000    -0.00000
  E(xc)     -60.56654   -60.56660   -61.23945    -0.00006     0.00000     0.00000
  Local     -89.91163   -89.95373   123.18824    -0.03647    -0.00000    -0.00000
  n-local   -13.80651   -12.75776   -15.75372    -0.31763    -0.06027     0.12405
  augment    -1.61286    -1.61306    -1.47109    -0.00017    -0.00000     0.00000
  Kinetic   250.10068   244.39767   298.22813     1.69952     0.51720    -1.09535
  Fock        0.00000     0.00000     0.00000     0.00000     0.00000     0.00000
  vdW        -0.74281    -0.74267    -0.67521     0.00012    -0.00000    -0.00000
  Total       0.95804     1.01451    25.39369     0.04891     0.00000    -0.00000
  in kB      73.25517    77.57321  1941.69672     3.73952     0.00000    -0.00000

 VOLUME and BASIS-vectors are now :
  energy-cutoff  :      600.00
  volume of cell :       20.95
      direct lattice vectors                 reciprocal lattice vectors
     2.466437249 -0.000959643  0.000000000     0.405534294  0.234345762  0.000000000
    -1.234049700  2.135517493  0.000000000     0.000182236  0.468375882  0.000000000
     0.000000000  0.000000000  3.979050437     0.000000000  0.000000000  0.251316241

  length of vectors
     2.466437436  2.466437436  3.979050437     0.468375917  0.468375917  0.251316241

 FORCES acting on ions
    electron-ion (+dipol)            ewald-force                    non-local-force                 convergence-correction
   -.130E+00 0.749E-01 -.139E-11   0.132E+00 -.763E-01 -.850E-14   -.536E-02 0.309E-02 -.694E-17   -.143E-03 0.825E-04 0.888E-13
   0.130E+00 -.749E-01 0.117E-12   -.132E+00 0.763E-01 0.767E-14   0.536E-02 -.309E-02 0.694E-17   0.143E-03 -.825E-04 -.735E-13
   0.115E+00 -.662E-01 -.198E-12   -.115E+00 0.663E-01 -.896E-14   -.134E-03 0.773E-04 0.000E+00   0.173E-04 -.998E-05 0.753E-13
   -.115E+00 0.662E-01 -.351E-13   0.115E+00 -.663E-01 0.979E-14   0.134E-03 -.773E-04 0.000E+00   -.173E-04 0.998E-05 -.570E-13
   -.731E-05 -.127E-04 -.150E-11   -.638E-15 -.346E-14 0.000E+00   0.111E-15 0.833E-16 0.000E+00   0.158E-09 0.273E-09 0.336E-13

 POSITION                                       TOTAL-FORCE (eV/Angst)
      2.46380      0.00056      0.99476        -0.002986      0.001724     -0.000000
     -1.23142      2.13400      2.98429         0.002986     -0.001724      0.000000
     -0.00312      1.42484      0.99476         0.000013     -0.000008     -0.000000
      1.23550      0.70972      2.98429        -0.000013      0.000008      0.000000
    total drift:                               -0.000007     -0.000013     -0.000000

  FREE ENERGIE OF THE ION-ELECTRON SYSTEM (eV)
  free  energy   TOTEN  =       -32.74293149 eV

  energy  without entropy=      -32.74293149  energy(sigma->0) =      -32.74293149

 d Force = 0.2172657E-03[-0.741E-05, 0.442E-03]  d Energy = 0.2262821E-03-0.902E-05
 d Force = 0.1362631E-02[ 0.600E-03, 0.213E-02]  d Ewald  = 0.1363547E-02-0.916E-06

 reached required accuracy - stopping structural energy minimisation
 BZINTS: Fermi energy: 12.042952; 16.000000 electrons
         Band energy:  23.684230;  BLOECHL correction: -0.030430