 vasp.5.3.5 31Mar14 (build Nov 02 2014 15:17:37) complex

 executed on        ion-Intel-MKL date 2016.10.18  13:15:47

 INCAR:
 POTCAR:   PAW_PBE C 08Apr2002

 POTCAR:   PAW_PBE C 08Apr2002
   VRHFIN =C: s2p2

   TITEL  = PAW_PBE C 08Apr2002
   POMASS =   12.011; ZVAL   =    4.000    mass and valenz
   ENMAX  =  400.000; ENMIN  =  300.000 eV
   QCUT   =   -5.516; QGAM   =   11.032    optimization parameters

   Description
     l     E      TYP  RCUT    TYP  RCUT
     0   .000     23  1.200
     0   .000     23  1.200
     1   .000     23  1.500
     1  2.500     23  1.500
     2   .000      7  1.500

 PAW_PBE C 08Apr2002                    :

 POSCAR: C
  positions in direct lattice
 exchange correlation table for  LEXCH =        8
   RHO(1)=    0.500       N(1)  =     2000
   RHO(2)=  100.500       N(2)  =     4000

 ion  position               nearest neighbor table
   1  0.499  0.000  0.124-  19 1.42  18 1.42  20 1.43
   2  1.000  0.000  0.125-  17 1.42  20 1.42  19 1.42
   3  0.500  0.500  0.125-  20 1.42  17 1.42  18 1.42
   4  1.000  0.500  0.125-  19 1.42  18 1.42  17 1.42
   5  0.500  0.000  0.625-  22 1.42  23 1.42  24 1.42
   6  1.000  0.000  0.625-  21 1.42  24 1.42  23 1.42
   7  0.500  0.500  0.625-  24 1.42  21 1.42  22 1.42
   8  1.000  0.500  0.625-  23 1.42  22 1.42  21 1.42
   9  0.000  0.500  0.375-  27 1.42  26 1.42  28 1.42
  10  0.500  0.500  0.375-  28 1.42  25 1.42  27 1.42
  11  0.000  1.000  0.375-  25 1.42  28 1.42  26 1.42
  12  0.500  1.000  0.375-  26 1.42  27 1.42  25 1.42
  13  0.000  0.500  0.875-  31 1.42  30 1.42  32 1.42
  14  0.500  0.500  0.875-  32 1.42  29 1.42  31 1.42
  15  0.000  1.000  0.875-  29 1.42  32 1.42  30 1.42
  16  0.500  1.000  0.875-  30 1.42  31 1.42  29 1.42
  17  0.166  0.334  0.125-   2 1.42   3 1.42   4 1.42
  18  0.666  0.334  0.125-   4 1.42   1 1.42   3 1.42
  19  0.166  0.834  0.125-   1 1.42   4 1.42   2 1.42
  20  0.666  0.834  0.125-   3 1.42   2 1.42   1 1.43
  21  0.166  0.334  0.625-   6 1.42   7 1.42   8 1.42
  22  0.666  0.334  0.625-   5 1.42   8 1.42   7 1.42
  23  0.166  0.834  0.625-   8 1.42   5 1.42   6 1.42
  24  0.666  0.834  0.625-   7 1.42   6 1.42   5 1.42
  25  0.334  0.166  0.375-  11 1.42  10 1.42  12 1.42
  26  0.834  0.166  0.375-  12 1.42   9 1.42  11 1.42
  27  0.334  0.666  0.375-   9 1.42  12 1.42  10 1.42
  28  0.834  0.666  0.375-  10 1.42  11 1.42   9 1.42
  29  0.334  0.166  0.875-  15 1.42  14 1.42  16 1.42
  30  0.834  0.166  0.875-  16 1.42  13 1.42  15 1.42
  31  0.334  0.666  0.875-  13 1.42  16 1.42  14 1.42
  32  0.834  0.666  0.875-  14 1.42  15 1.42  13 1.42

  LATTYP: Found a base centered orthorhombic cell.
 ALAT       =     4.9295501972
 B/A-ratio  =     1.7336081796
 C/A-ratio  =     2.6098925659

  Lattice vectors:

 A1 = (   4.9328744980,  -0.0019192860,   0.0000000000)
 A2 = (  -2.4680993993,   4.2710349859,   0.0000000000)
 A3 = (   0.0000000000,   0.0000000000,  12.8655964126)

Analysis of symmetry for initial positions (statically):
 Subroutine PRICEL returns:
 Original cell was already a primitive cell.

 Routine SETGRP: Setting up the symmetry group for a
 base centered orthorhombic supercell.

 Subroutine GETGRP returns: Found  1 space group operations
 (whereof  1 operations were pure point group operations)
 out of a pool of  8 trial point group operations.

The static configuration has the point symmetry C_1 .

Analysis of symmetry for dynamics (positions and initial velocities):
 Subroutine PRICEL returns:
 Original cell was already a primitive cell.

 Routine SETGRP: Setting up the symmetry group for a
 base centered orthorhombic supercell.

 Subroutine GETGRP returns: Found  1 space group operations
 (whereof  1 operations were pure point group operations)
 out of a pool of  8 trial point group operations.

The dynamic configuration has the point symmetry C_1 .

 KPOINTS: B4C B11C-CBC

Automatic generation of k-mesh.
Space group operators:
 irot       det(A)        alpha          n_x          n_y          n_z        tau_x        tau_y        tau_z
    1     1.000000     0.000000     1.000000     0.000000     0.000000     0.000000     0.000000     0.000000

 Subroutine IBZKPT returns following result:

 Found     76 irreducible k-points:

 Following reciprocal coordinates:
            Coordinates               Weight
  0.000000  0.000000  0.000000      1.000000
  0.166667  0.000000  0.000000      2.000000
  0.333333  0.000000  0.000000      2.000000
  0.500000  0.000000  0.000000      1.000000
  0.000000  0.166667  0.000000      2.000000
  0.166667  0.166667  0.000000      2.000000
  0.333333  0.166667  0.000000      2.000000
  0.500000  0.166667  0.000000      2.000000
 -0.333333  0.166667  0.000000      2.000000
 -0.166667  0.166667  0.000000      2.000000
  0.000000  0.333333  0.000000      2.000000
  0.166667  0.333333  0.000000      2.000000
  0.333333  0.333333  0.000000      2.000000
  0.500000  0.333333  0.000000      2.000000
 -0.333333  0.333333  0.000000      2.000000
 -0.166667  0.333333  0.000000      2.000000
  0.000000  0.500000  0.000000      1.000000
  0.166667  0.500000  0.000000      2.000000
  0.333333  0.500000  0.000000      2.000000
  0.500000  0.500000  0.000000      1.000000
  0.000000  0.000000  0.250000      2.000000
  0.166667  0.000000  0.250000      2.000000
  0.333333  0.000000  0.250000      2.000000
  0.500000  0.000000  0.250000      2.000000
 -0.333333  0.000000  0.250000      2.000000
 -0.166667  0.000000  0.250000      2.000000
  0.000000  0.166667  0.250000      2.000000
  0.166667  0.166667  0.250000      2.000000
  0.333333  0.166667  0.250000      2.000000
  0.500000  0.166667  0.250000      2.000000
 -0.333333  0.166667  0.250000      2.000000
 -0.166667  0.166667  0.250000      2.000000
  0.000000  0.333333  0.250000      2.000000
  0.166667  0.333333  0.250000      2.000000
  0.333333  0.333333  0.250000      2.000000
  0.500000  0.333333  0.250000      2.000000
 -0.333333  0.333333  0.250000      2.000000
 -0.166667  0.333333  0.250000      2.000000
  0.000000  0.500000  0.250000      2.000000
  0.166667  0.500000  0.250000      2.000000
  0.333333  0.500000  0.250000      2.000000
  0.500000  0.500000  0.250000      2.000000
 -0.333333  0.500000  0.250000      2.000000
 -0.166667  0.500000  0.250000      2.000000
 -0.000000 -0.333333  0.250000      2.000000
  0.166667 -0.333333  0.250000      2.000000
  0.333333 -0.333333  0.250000      2.000000
  0.500000 -0.333333  0.250000      2.000000
 -0.333333 -0.333333  0.250000      2.000000
 -0.166667 -0.333333  0.250000      2.000000
 -0.000000 -0.166667  0.250000      2.000000
  0.166667 -0.166667  0.250000      2.000000
  0.333333 -0.166667  0.250000      2.000000
  0.500000 -0.166667  0.250000      2.000000
 -0.333333 -0.166667  0.250000      2.000000
 -0.166667 -0.166667  0.250000      2.000000
  0.000000  0.000000  0.500000      1.000000
  0.166667  0.000000  0.500000      2.000000
  0.333333  0.000000  0.500000      2.000000
  0.500000  0.000000  0.500000      1.000000
  0.000000  0.166667  0.500000      2.000000
  0.166667  0.166667  0.500000      2.000000
  0.333333  0.166667  0.500000      2.000000
  0.500000  0.166667  0.500000      2.000000
 -0.333333  0.166667  0.500000      2.000000
 -0.166667  0.166667  0.500000      2.000000
  0.000000  0.333333  0.500000      2.000000
  0.166667  0.333333  0.500000      2.000000
  0.333333  0.333333  0.500000      2.000000
  0.500000  0.333333  0.500000      2.000000
 -0.333333  0.333333  0.500000      2.000000
 -0.166667  0.333333  0.500000      2.000000
  0.000000  0.500000  0.500000      1.000000
  0.166667  0.500000  0.500000      2.000000
  0.333333  0.500000  0.500000      2.000000
  0.500000  0.500000  0.500000      1.000000

 Following cartesian coordinates:
            Coordinates               Weight
  0.000000  0.000000  0.000000      1.000000
  0.033795  0.019529  0.000000      2.000000
  0.067589  0.039058  0.000000      2.000000
  0.101384  0.058586  0.000000      1.000000
  0.000015  0.039031  0.000000      2.000000
  0.033810  0.058560  0.000000      2.000000
  0.067604  0.078089  0.000000      2.000000
  0.101399  0.097618  0.000000      2.000000
 -0.067574 -0.000026  0.000000      2.000000
 -0.033779  0.019503  0.000000      2.000000
  0.000030  0.078063  0.000000      2.000000
  0.033825  0.097591  0.000000      2.000000
  0.067619  0.117120  0.000000      2.000000
  0.101414  0.136649  0.000000      2.000000
 -0.067559  0.039005  0.000000      2.000000
 -0.033764  0.058534  0.000000      2.000000
  0.000046  0.117094  0.000000      1.000000
  0.033840  0.136623  0.000000      2.000000
  0.067635  0.156152  0.000000      2.000000
  0.101429  0.175680  0.000000      1.000000
  0.000000  0.000000  0.019432      2.000000
  0.033795  0.019529  0.019432      2.000000
  0.067589  0.039058  0.019432      2.000000
  0.101384  0.058586  0.019432      2.000000
 -0.067589 -0.039058  0.019432      2.000000
 -0.033795 -0.019529  0.019432      2.000000
  0.000015  0.039031  0.019432      2.000000
  0.033810  0.058560  0.019432      2.000000
  0.067604  0.078089  0.019432      2.000000
  0.101399  0.097618  0.019432      2.000000
 -0.067574 -0.000026  0.019432      2.000000
 -0.033779  0.019503  0.019432      2.000000
  0.000030  0.078063  0.019432      2.000000
  0.033825  0.097591  0.019432      2.000000
  0.067619  0.117120  0.019432      2.000000
  0.101414  0.136649  0.019432      2.000000
 -0.067559  0.039005  0.019432      2.000000
 -0.033764  0.058534  0.019432      2.000000
  0.000046  0.117094  0.019432      2.000000
  0.033840  0.136623  0.019432      2.000000
  0.067635  0.156152  0.019432      2.000000
  0.101429  0.175680  0.019432      2.000000
 -0.067543  0.078036  0.019432      2.000000
 -0.033749  0.097565  0.019432      2.000000
 -0.000030 -0.078063  0.019432      2.000000
  0.033764 -0.058534  0.019432      2.000000
  0.067559 -0.039005  0.019432      2.000000
  0.101353 -0.019476  0.019432      2.000000
 -0.067619 -0.117120  0.019432      2.000000
 -0.033825 -0.097591  0.019432      2.000000
 -0.000015 -0.039031  0.019432      2.000000
  0.033779 -0.019503  0.019432      2.000000
  0.067574  0.000026  0.019432      2.000000
  0.101368  0.019555  0.019432      2.000000
 -0.067604 -0.078089  0.019432      2.000000
 -0.033810 -0.058560  0.019432      2.000000
  0.000000  0.000000  0.038863      1.000000
  0.033795  0.019529  0.038863      2.000000
  0.067589  0.039058  0.038863      2.000000
  0.101384  0.058586  0.038863      1.000000
  0.000015  0.039031  0.038863      2.000000
  0.033810  0.058560  0.038863      2.000000
  0.067604  0.078089  0.038863      2.000000
  0.101399  0.097618  0.038863      2.000000
 -0.067574 -0.000026  0.038863      2.000000
 -0.033779  0.019503  0.038863      2.000000
  0.000030  0.078063  0.038863      2.000000
  0.033825  0.097591  0.038863      2.000000
  0.067619  0.117120  0.038863      2.000000
  0.101414  0.136649  0.038863      2.000000
 -0.067559  0.039005  0.038863      2.000000
 -0.033764  0.058534  0.038863      2.000000
  0.000046  0.117094  0.038863      1.000000
  0.033840  0.136623  0.038863      2.000000
  0.067635  0.156152  0.038863      2.000000
[...]

[...]

 eigenvalue-minimisations  :  9096
 total energy-change (2. order) :-0.2256456E-08  (-0.2978290E-08)
 number of electron     127.9999995 magnetization
 augmentation part        3.0609949 magnetization

 Free energy of the ion-electron system (eV)
  alpha Z        PSCENC =       307.88348157
  Ewald energy   TEWEN  =     -3888.95843721
  -Hartree energ DENC   =     -1325.02642325
  -exchange      EXHF   =         0.00000000
  -V(xc)+E(xc)   XCENC  =       461.53763307
  PAW double counting   =      2223.66432126    -2264.88778745
  entropy T*S    EENTRO =         0.00000000
  eigenvalues    EBANDS =      -517.66635184
  atomic energy  EATOM  =      4708.94155045
  free energy    TOTEN  =      -294.51201340 eV

  energy without entropy =     -294.51201340  energy(sigma->0) =     -294.51201340

 average (electrostatic) potential at core
  the test charge radii are     0.6991
  (the norm of the test charge is              1.0000)
       1 -50.3470       2 -50.3470       3 -50.3452       4 -50.3487       5 -50.3470
       6 -50.3470       7 -50.3470       8 -50.3470       9 -50.3475      10 -50.3475
      11 -50.3475      12 -50.3473      13 -50.3474      14 -50.3474      15 -50.3474
      16 -50.3477      17 -50.3010      18 -50.3011      19 -50.3014      20 -50.3007
      21 -50.3011      22 -50.3011      23 -50.3011      24 -50.3010      25 -50.3013
      26 -50.3013      27 -50.3013      28 -50.3012      29 -50.3009      30 -50.3009
      31 -50.3009      32 -50.3010

 E-fermi :   5.0409     XC(G=0): -10.5936     alpha+bet :-11.8543

 k-point     1 :       0.0000    0.0000    0.0000
  band No.  band energies     occupation
      1     -14.6267      2.00000
      2     -14.4298      2.00000
      3     -14.4292      2.00000
      4     -14.2140      2.00000
      5      -9.2770      2.00000
      6      -9.2669      2.00000
      7      -9.2646      2.00000
      8      -9.1906      2.00000
      9      -9.1888      2.00000
     10      -9.1786      2.00000
     11      -9.1771      2.00000
     12      -9.1771      2.00000
     13      -9.1731      2.00000
     14      -9.1231      2.00000
     15      -9.1098      2.00000
     16      -9.1064      2.00000
     17      -8.1799      2.00000
     18      -8.1778      2.00000
     19      -8.1761      2.00000
     20      -8.1410      2.00000
     21      -8.1399      2.00000
     22      -8.1380      2.00000
     23      -8.1374      2.00000
     24      -8.1373      2.00000
     25      -8.1347      2.00000
     26      -8.0623      2.00000
     27      -8.0617      2.00000
     28      -8.0598      2.00000
     29      -3.6376      2.00000
     30      -2.5566      2.00000
     31      -2.5547      2.00000
     32      -1.3555      2.00000
     33      -1.3531      2.00000
     34      -1.3375      2.00000
     35      -1.3150      2.00000
     36      -1.3139      2.00000
     37      -1.3139      2.00000
     38      -1.3098      2.00000
     39      -1.2972      2.00000
     40      -1.2952      2.00000
     41      -1.2728      2.00000
     42      -1.2700      2.00000
     43      -1.2547      2.00000
     44      -1.2166      2.00000
     45       2.0506      2.00000
     46       2.0595      2.00000
     47       2.0635      2.00000
     48       2.0689      2.00000
     49       2.0746      2.00000
     50       2.0796      2.00000
     51       2.0840      2.00000
     52       2.0923      2.00000
     53       2.1694      2.00000
     54       2.1711      2.00000
     55       2.1723      2.00000
     56       2.6918      2.00000
     57       2.6956      2.00000
     58       2.7022      2.00000
     59       2.7027      2.00000
     60       2.7030      2.00000
[...]
     70       6.7043      0.00000
     71       6.7064      0.00000
     72       6.7068      0.00000
     73       6.7098      0.00000
     74       7.3642      0.00000
     75       7.3719      0.00000
     76       7.3743      0.00000
     77       9.7504      0.00000
     78      12.1872      0.00000
     79      12.1912      0.00000
     80      12.2228      0.00000
     81      12.4449      0.00000
     82      12.4485      0.00000
     83      12.4520      0.00000
     84      12.4793      0.00000

[...]

 k-point    76 :       0.5000    0.5000    0.5000
  band No.  band energies     occupation
      1     -13.0961      2.00000
      2     -13.0933      2.00000
      3     -13.0933      2.00000
      4     -13.0903      2.00000
      5     -12.8293      2.00000
      6     -12.8264      2.00000
      7     -12.8264      2.00000
      8     -12.8233      2.00000
      9     -10.2441      2.00000
     10     -10.2423      2.00000
     11     -10.2422      2.00000
     12     -10.2405      2.00000
     13     -10.0264      2.00000
     14     -10.0246      2.00000
     15     -10.0246      2.00000
     16     -10.0227      2.00000
     17      -5.4758      2.00000
     18      -5.4713      2.00000
     19      -5.4709      2.00000
     20      -5.4709      2.00000
     21      -5.3993      2.00000
     22      -5.3953      2.00000
     23      -5.3949      2.00000
     24      -5.3948      2.00000
     25      -3.8765      2.00000
     26      -3.8765      2.00000
     27      -3.8751      2.00000
     28      -3.8725      2.00000
     29      -3.8204      2.00000
     30      -3.8204      2.00000
     31      -3.8189      2.00000
     32      -3.8157      2.00000
     33      -2.3825      2.00000
     34      -2.3821      2.00000
     35      -2.3821      2.00000
     36      -2.3765      2.00000
     37      -2.2811      2.00000
     38      -2.2807      2.00000
     39      -2.2807      2.00000
     40      -2.2743      2.00000
     41      -1.5717      2.00000
     42      -1.5688      2.00000
     43      -1.5686      2.00000
     44      -1.5663      2.00000
     45       0.0079      2.00000
     46       0.0113      2.00000
     47       0.0115      2.00000
     48       0.0140      2.00000
     49       0.0362      2.00000
     50       0.0460      2.00000
     51       0.0461      2.00000
     52       0.0476      2.00000
     53       0.0897      2.00000
     54       0.0969      2.00000
     55       0.0969      2.00000
     56       0.0986      2.00000
     57       1.7197      2.00000
     58       1.7210      2.00000
     59       1.7212      2.00000
     60       1.7246      2.00000
[...]
     70       8.1310      0.00000
     71       8.1313      0.00000
     72       8.1323      0.00000
     73      11.8911      0.00000
     74      11.8997      0.00000
     75      11.9019      0.00000
     76      11.9108      0.00000
     77      12.3483      0.00000
     78      12.3587      0.00000
     79      12.3606      0.00000
     80      12.3709      0.00000
     81      12.5591      0.00000
     82      12.5614      0.00000
     83      12.5620      0.00000
     84      12.5674      0.00000

 soft charge-density along one line, spin component           1
         0         1         2         3         4         5         6         7         8         9
 total charge-density along one line

------------------------ aborting loop because EDIFF is reached ----------------------------------------

         DFTD3 V3.0 Rev 1
 IVDW         = 12
 DF pbe
 parameters
 VDW_S6       =    1.0000
 VDW_S8       =    0.7875
 VDW_A1       =    0.4289
 VDW_A2       =    4.4407
 k1-k3        =   16.0000    1.3333   -4.0000
 VDW_RADIUS   =   50.2022 A
 VDW_CNRADIUS =   21.1671 A
 Edisp (eV)   -5.25772

 E6    (eV) :    -3.7594
 E8    (eV) :    -1.4983
 % E8        : 28.50

  FORCE on cell =-STRESS in cart. coord.  units (eV):
  Direction    XX          YY          ZZ          XY          YZ          ZX
  Alpha Z   307.88348   307.88348   307.88348
  Ewald     415.24319   414.75701 -4718.97572     0.36091     0.00061    -0.00959
  Hartree  1144.89258  1144.89117  -964.75716     0.10637     0.00026    -0.00232
  E(xc)    -468.02397  -468.03091  -484.55968    -0.00301     0.00004    -0.00011
  Local   -3198.85268 -3198.46072  3777.14278    -0.40138    -0.00012     0.00829
  n-local  -111.61853  -111.73081  -102.71994    -0.09167     0.00067    -0.00152
  augment   -12.36935   -12.36847   -11.33787    -0.00049    -0.00001     0.00005
  Kinetic  1922.71406  1923.48196  2206.47970     0.53489    -0.00877     0.02110
  Fock        0.00000     0.00000     0.00000     0.00000     0.00000     0.00000
  vdW        -0.68767    -0.67707    -6.11862     0.00878    -0.00000    -0.00002
  Total      -0.81889    -0.25436     3.03697     0.51441    -0.00733     0.01587
  in kB      -4.84137    -1.50381    17.95503     3.04126    -0.04334     0.09381

 VOLUME and BASIS-vectors are now :
  energy-cutoff  :      800.00
  volume of cell :      271.00
      direct lattice vectors                 reciprocal lattice vectors
     4.932874498 -0.001919286  0.000000000     0.202767147  0.117172881  0.000000000
    -2.468099399  4.271034986  0.000000000     0.000091118  0.234187941  0.000000000
     0.000000000  0.000000000 12.865596413     0.000000000  0.000000000  0.077726673

  length of vectors
     4.932874871  4.932874871 12.865596413     0.234187958  0.234187958  0.077726673

 FORCES acting on ions
    electron-ion (+dipol)            ewald-force                    non-local-force                 convergence-correction
   -.896E+00 0.633E-01 0.158E+01   0.101E+01 -.585E-01 -.161E+01   0.934E-01 0.297E-02 0.167E+00   0.691E-05 -.230E-05 0.505E-04
   0.918E-01 0.656E-01 -.380E+00   -.119E+00 -.616E-01 0.362E+00   -.240E-01 0.286E-02 0.184E-01   0.872E-06 -.265E-05 0.577E-04
   -.887E-01 -.386E-01 -.380E+00   0.872E-01 0.577E-01 0.362E+00   -.129E-01 0.919E-02 0.183E-01   0.389E-05 -.102E-05 0.578E-04
   -.891E-01 0.170E+00 -.380E+00   0.875E-01 -.181E+00 0.362E+00   -.128E-01 -.369E-02 0.184E-01   0.423E-05 -.539E-05 0.578E-04
   -.114E+00 0.659E-01 0.100E+00   0.107E+00 -.617E-01 -.101E+00   -.483E-02 0.284E-02 -.521E-02   0.128E-04 -.237E-05 -.120E-03
   -.114E+00 0.659E-01 0.990E-01   0.107E+00 -.617E-01 -.995E-01   -.481E-02 0.284E-02 -.529E-02   0.136E-04 -.269E-05 -.120E-03
   -.114E+00 0.659E-01 0.990E-01   0.107E+00 -.616E-01 -.995E-01   -.482E-02 0.283E-02 -.529E-02   0.134E-04 -.213E-05 -.121E-03
   -.114E+00 0.660E-01 0.990E-01   0.107E+00 -.618E-01 -.995E-01   -.482E-02 0.285E-02 -.529E-02   0.126E-04 -.169E-05 -.120E-03
   0.114E+00 -.613E-01 0.838E-01   -.107E+00 0.566E-01 -.832E-01   0.475E-02 -.282E-02 0.538E-02   0.252E-05 -.348E-05 0.288E-04
   0.114E+00 -.711E-01 0.834E-01   -.107E+00 0.667E-01 -.831E-01   0.488E-02 -.302E-02 0.575E-02   0.614E-05 -.407E-05 0.295E-04
   0.123E+00 -.664E-01 0.835E-01   -.116E+00 0.618E-01 -.831E-01   0.499E-02 -.304E-02 0.556E-02   0.425E-05 -.342E-05 0.292E-04
   0.104E+00 -.664E-01 0.153E+00   -.970E-01 0.618E-01 -.153E+00   0.472E-02 -.296E-02 0.508E-02   0.430E-05 -.168E-05 0.288E-04
   0.114E+00 -.604E-01 0.833E-01   -.107E+00 0.564E-01 -.830E-01   0.506E-02 -.267E-02 0.567E-02   0.460E-05 -.246E-05 0.773E-06
   0.114E+00 -.709E-01 0.836E-01   -.107E+00 0.672E-01 -.829E-01   0.490E-02 -.287E-02 0.529E-02   0.497E-05 -.217E-05 0.523E-06
   0.124E+00 -.654E-01 0.835E-01   -.116E+00 0.617E-01 -.830E-01   0.516E-02 -.265E-02 0.548E-02   0.411E-05 -.145E-05 0.713E-06
   0.104E+00 -.654E-01 0.154E+00   -.963E-01 0.616E-01 -.154E+00   0.489E-02 -.273E-02 0.524E-02   0.476E-05 -.195E-05 0.407E-06
   0.193E+00 -.646E-01 -.317E+00   -.186E+00 0.615E-01 0.315E+00   0.353E-02 -.233E-02 -.100E-01   -.726E-05 0.262E-05 0.571E-04
   -.131E+00 -.577E-01 -.837E+00   0.135E+00 0.538E-01 0.869E+00   -.220E-01 -.200E-02 -.783E-01   -.148E-06 0.242E-05 0.591E-04
   0.450E+00 0.272E+00 -.841E+00   -.500E+00 -.306E+00 0.874E+00   -.149E-01 0.177E-02 -.785E-01   -.413E-05 0.122E-05 0.590E-04
   0.460E+00 -.405E+00 -.832E+00   -.511E+00 0.433E+00 0.864E+00   -.138E-01 -.697E-02 -.781E-01   -.350E-05 0.480E-05 0.591E-04
   0.112E+00 -.645E-01 0.991E-01   -.106E+00 0.613E-01 -.993E-01   0.402E-02 -.237E-02 0.125E-02   -.138E-04 0.295E-05 -.120E-03
   0.111E+00 -.645E-01 0.996E-01   -.106E+00 0.613E-01 -.999E-01   0.402E-02 -.237E-02 0.124E-02   -.142E-04 0.329E-05 -.120E-03
   0.111E+00 -.645E-01 0.996E-01   -.106E+00 0.613E-01 -.999E-01   0.402E-02 -.237E-02 0.124E-02   -.143E-04 0.282E-05 -.120E-03
   0.111E+00 -.646E-01 0.996E-01   -.106E+00 0.614E-01 -.999E-01   0.402E-02 -.236E-02 0.124E-02   -.139E-04 0.259E-05 -.120E-03
   -.136E+00 0.761E-01 0.978E-01   0.131E+00 -.726E-01 -.975E-01   -.414E-02 0.244E-02 -.192E-02   -.261E-05 0.381E-05 0.291E-04
   -.868E-01 0.817E-01 0.116E+00   0.810E-01 -.785E-01 -.116E+00   -.412E-02 0.257E-02 -.151E-02   -.557E-05 0.310E-05 0.285E-04
   -.116E+00 0.368E-01 0.107E+00   0.111E+00 -.327E-01 -.107E+00   -.425E-02 0.249E-02 -.173E-02   -.405E-05 0.336E-05 0.290E-04
   -.108E+00 0.650E-01 0.774E-01   0.102E+00 -.614E-01 -.771E-01   -.394E-02 0.250E-02 -.918E-03   -.420E-05 0.128E-05 0.290E-04
   -.867E-01 0.470E-01 0.117E+00   0.807E-01 -.437E-01 -.117E+00   -.408E-02 0.218E-02 -.157E-02   -.395E-05 0.208E-05 -.239E-06
   -.136E+00 0.530E-01 0.973E-01   0.131E+00 -.500E-01 -.970E-01   -.414E-02 0.231E-02 -.195E-02   -.295E-05 0.172E-05 0.313E-06
   -.116E+00 0.925E-01 0.107E+00   0.111E+00 -.902E-01 -.107E+00   -.423E-02 0.230E-02 -.172E-02   -.355E-05 0.112E-05 -.395E-06
   -.107E+00 0.641E-01 0.773E-01   0.102E+00 -.613E-01 -.769E-01   -.391E-02 0.226E-02 -.926E-03   -.408E-05 0.981E-06 -.462E-07
   0.111E-04 0.153E-04 0.796E-02   0.169E-13 -.366E-13 -.782E-13   -.308E-04 -.140E-04 -.767E-02   0.174E-05 -.761E-06 -.270E-03

 POSITION                                       TOTAL-FORCE (eV/Angst)
      2.46044      0.00044      1.59886         0.207947      0.007887      0.131174
      4.93046     -0.00052      1.60820        -0.053037      0.006820      0.000812
      1.22997      2.13595      1.60820        -0.014682      0.028991      0.000882
      3.69641      2.13499      1.60820        -0.014789     -0.015331      0.000829
      2.46402      0.00044      8.04100        -0.011810      0.007073     -0.005831
      4.93046     -0.00052      8.04100        -0.011856      0.007072     -0.005897
      1.22997      2.13595      8.04100        -0.011836      0.007083     -0.005897
      3.69641      2.13499      8.04100        -0.011836      0.007060     -0.005897
     -1.23163      2.13412      4.82460         0.011648     -0.007536      0.006013
      1.23481      2.13316      4.82460         0.011939     -0.007437      0.006125
     -2.46568      4.26964      4.82460         0.011711     -0.007741      0.006067
      0.00076      4.26868      4.82460         0.011916     -0.007551      0.004910
     -1.23163      2.13412     11.25740         0.012542     -0.006760      0.006062
      1.23481      2.13316     11.25740         0.012235     -0.006674      0.005944
     -2.46568      4.26964     11.25740         0.012316     -0.006436      0.006007
      0.00076      4.26868     11.25740         0.012506     -0.006602      0.005058
     -0.00332      1.42496      1.60820         0.011085     -0.005445     -0.011762
      2.46311      1.42400      1.60820        -0.017362     -0.005938     -0.045750
     -1.23737      3.56047      1.60820        -0.064841     -0.032838     -0.045307
      1.22906      3.55952      1.60820        -0.064164      0.021517     -0.046109
     -0.00332      1.42496      8.04100         0.009340     -0.005594      0.000894
      2.46311      1.42400      8.04100         0.009338     -0.005594      0.000863
     -1.23737      3.56047      8.04100         0.009338     -0.005594      0.000862
      1.22906      3.55952      8.04100         0.009339     -0.005595      0.000860
      1.23571      0.70960      4.82460        -0.009213      0.005979     -0.001586
      3.70215      0.70864      4.82460        -0.010020      0.005832     -0.001649
      0.00166      2.84512      4.82460        -0.009486      0.006585     -0.001631
      2.46810      2.84416      4.82460        -0.009715      0.006138     -0.000569
      1.23571      0.70960     11.25740        -0.010126      0.005514     -0.001708
      3.70215      0.70864     11.25740        -0.009174      0.005357     -0.001590
      0.00166      2.84512     11.25740        -0.009513      0.004601     -0.001613
      2.46810      2.84416     11.25740        -0.009740      0.005155     -0.000567
    total drift:                               -0.000018      0.000001      0.000022

  FREE ENERGIE OF THE ION-ELECTRON SYSTEM (eV)
  free  energy   TOTEN  =      -299.76973067 eV

  energy  without entropy=     -299.76973067  energy(sigma->0) =     -299.76973067

 BZINTS: Fermi energy:  5.040862;128.000000 electrons
         Band energy:-517.666352;  BLOECHL correction:  0.000000