 vasp.5.3.5 31Mar14 (build Nov 02 2014 15:17:37) complex

 executed on        ion-Intel-MKL date 2017.02.16  11:18:57

 INCAR:
 POTCAR:   PAW_PBE C 08Apr2002
 POTCAR:   PAW_PBE C 08Apr2002
   VRHFIN =C: s2p2

   TITEL  = PAW_PBE C 08Apr2002
   POMASS =   12.011; ZVAL   =    4.000    mass and valenz
   ENMAX  =  400.000; ENMIN  =  300.000 eV
   QCUT   =   -5.516; QGAM   =   11.032    optimization parameters

   Description
     l     E      TYP  RCUT    TYP  RCUT
     0   .000     23  1.200
     0   .000     23  1.200
     1   .000     23  1.500
     1  2.500     23  1.500
     2   .000      7  1.500

 PAW_PBE C 08Apr2002                    :

 POSCAR: C
  positions in direct lattice
 exchange correlation table for  LEXCH =        8
   RHO(1)=    0.500       N(1)  =     2000
   RHO(2)=  100.500       N(2)  =     4000

 ion  position               nearest neighbor table
   1  0.002  0.000  0.000-   9 1.63  11 1.63  13 1.63  10 1.64
   2  0.500  0.000  0.000-  10 1.63  12 1.63   9 1.63  14 1.63
   3  0.000  0.500  0.000-  11 1.63   9 1.63  12 1.63  15 1.63
   4  0.500  0.500  0.000-  12 1.63  10 1.63  11 1.63  16 1.63
   5  0.000  0.000  0.500-  13 1.63  15 1.63  14 1.63   9 1.63
   6  0.500  0.000  0.500-  14 1.63  16 1.63  13 1.63  10 1.63
   7  0.000  0.500  0.500-  15 1.63  13 1.63  16 1.63  11 1.63
   8  0.500  0.500  0.500-  16 1.63  14 1.63  15 1.63  12 1.63
   9  0.125  0.125  0.125-   1 1.63   3 1.63   2 1.63   5 1.63
  10  0.625  0.125  0.125-   2 1.63   4 1.63   6 1.63   1 1.64
  11  0.125  0.625  0.125-   3 1.63   4 1.63   7 1.63   1 1.63
  12  0.625  0.625  0.125-   4 1.63   2 1.63   3 1.63   8 1.63
  13  0.125  0.125  0.625-   5 1.63   7 1.63   6 1.63   1 1.63
  14  0.625  0.125  0.625-   6 1.63   8 1.63   5 1.63   2 1.63
  15  0.125  0.625  0.625-   7 1.63   5 1.63   8 1.63   3 1.63
  16  0.625  0.625  0.625-   8 1.63   6 1.63   7 1.63   4 1.63

  LATTYP: Found a face centered cubic cell.
 ALAT       =     7.5451349082

  Lattice vectors:

 A1 = (   5.3352160588,   0.0000000000,   0.0000000000)
 A2 = (   2.6676080293,   4.6204326416,   0.0000000000)
 A3 = (   2.6676080293,   1.5401442138,   4.3561856703)

Analysis of symmetry for initial positions (statically):
 Subroutine PRICEL returns:
 Original cell was already a primitive cell.

 Routine SETGRP: Setting up the symmetry group for a
 face centered cubic supercell.

 Subroutine GETGRP returns: Found  2 space group operations
 (whereof  2 operations were pure point group operations)
 out of a pool of 48 trial point group operations.

The static configuration has the point symmetry C_1h.

Analysis of symmetry for dynamics (positions and initial velocities):
 Subroutine PRICEL returns:
 Original cell was already a primitive cell.

 Routine SETGRP: Setting up the symmetry group for a
 face centered cubic supercell.

 Subroutine GETGRP returns: Found  2 space group operations
 (whereof  2 operations were pure point group operations)
 out of a pool of 48 trial point group operations.

The dynamic configuration has the point symmetry C_1h.

 KPOINTS: B4C B11C-CBC

Automatic generation of k-mesh.
Space group operators:
 irot       det(A)        alpha          n_x          n_y          n_z        tau_x        tau_y        tau_z
    1     1.000000     0.000000     1.000000     0.000000     0.000000     0.000000     0.000000     0.000000
    2    -1.000000   180.000000     0.000000    -0.577350     0.816497     0.000000     0.000000     0.000000

 Subroutine IBZKPT returns following result:

 Found    544 irreducible k-points:

 Following reciprocal coordinates:
            Coordinates               Weight
  0.000000  0.000000  0.000000      1.000000
  0.083333 -0.000000  0.000000      2.000000
  0.166667  0.000000  0.000000      2.000000
  0.250000 -0.000000  0.000000      2.000000
  0.333333  0.000000  0.000000      2.000000
  0.416667 -0.000000  0.000000      2.000000
  0.500000 -0.000000  0.000000      1.000000
  0.000000  0.083333  0.000000      2.000000
  0.083333  0.083333  0.000000      2.000000
  0.166667  0.083333  0.000000      2.000000
  0.250000  0.083333  0.000000      2.000000
  0.333333  0.083333  0.000000      2.000000
  0.416667  0.083333  0.000000      2.000000
  0.500000  0.083333  0.000000      2.000000
 -0.416667  0.083333  0.000000      2.000000
 -0.333333  0.083333 -0.000000      2.000000
 -0.250000  0.083333 -0.000000      2.000000
 -0.166667  0.083333 -0.000000      2.000000
 -0.083333  0.083333 -0.000000      2.000000
  0.000000  0.166667  0.000000      2.000000
  0.083333  0.166667  0.000000      2.000000
  0.166667  0.166667  0.000000      2.000000
  0.250000  0.166667  0.000000      2.000000
  0.333333  0.166667  0.000000      2.000000
  0.416667  0.166667  0.000000      2.000000
  0.500000  0.166667  0.000000      2.000000
 -0.416667  0.166667 -0.000000      2.000000
 -0.333333  0.166667 -0.000000      2.000000
 -0.250000  0.166667 -0.000000      2.000000
 -0.166667  0.166667 -0.000000      2.000000
 -0.083333  0.166667  0.000000      2.000000
  0.000000  0.250000  0.000000      4.000000
  0.083333  0.250000  0.000000      4.000000
  0.166667  0.250000  0.000000      4.000000
  0.250000  0.250000  0.000000      4.000000
  0.333333  0.250000  0.000000      4.000000
  0.416667  0.250000  0.000000      4.000000
  0.500000  0.250000  0.000000      4.000000
 -0.416667  0.250000 -0.000000      4.000000
 -0.333333  0.250000 -0.000000      4.000000
 -0.250000  0.250000 -0.000000      4.000000
 -0.166667  0.250000 -0.000000      4.000000
 -0.083333  0.250000  0.000000      4.000000
  0.000000  0.333333  0.000000      2.000000
  0.083333  0.333333  0.000000      2.000000
  0.166667  0.333333  0.000000      2.000000
  0.250000  0.333333  0.000000      2.000000
  0.333333  0.333333  0.000000      2.000000
  0.416667  0.333333  0.000000      2.000000
  0.500000  0.333333  0.000000      2.000000
 -0.416667  0.333333 -0.000000      2.000000
 -0.333333  0.333333 -0.000000      2.000000
 -0.250000  0.333333 -0.000000      2.000000
 -0.166667  0.333333 -0.000000      2.000000
 -0.083333  0.333333  0.000000      2.000000
  0.000000  0.416667  0.000000      2.000000
  0.083333  0.416667  0.000000      2.000000
  0.166667  0.416667  0.000000      2.000000
  0.250000  0.416667  0.000000      2.000000
  0.333333  0.416667  0.000000      2.000000
[...]
  0.333333  0.416667  0.500000      2.000000
  0.416667  0.416667  0.500000      2.000000
  0.500000  0.416667  0.500000      2.000000
 -0.416667  0.416667  0.500000      2.000000
 -0.333333  0.416667  0.500000      2.000000
 -0.250000  0.416667  0.500000      2.000000
 -0.166667  0.416667  0.500000      2.000000
 -0.083333  0.416667  0.500000      2.000000
  0.000000  0.500000  0.500000      1.000000
  0.083333  0.500000  0.500000      2.000000
  0.166667  0.500000  0.500000      2.000000
  0.250000  0.500000  0.500000      2.000000
  0.333333  0.500000  0.500000      2.000000
  0.416667  0.500000  0.500000      2.000000
  0.500000  0.500000  0.500000      1.000000

 Following cartesian coordinates:
            Coordinates               Weight
  0.000000  0.000000  0.000000      1.000000
  0.015619 -0.009018 -0.006377      2.000000
  0.031239 -0.018036 -0.012753      2.000000
  0.046858 -0.027054 -0.019130      2.000000
  0.062478 -0.036072 -0.025507      2.000000
  0.078097 -0.045090 -0.031883      2.000000
  0.093717 -0.054107 -0.038260      1.000000
  0.000000  0.018036 -0.006377      2.000000
  0.015619  0.009018 -0.012753      2.000000
  0.031239  0.000000 -0.019130      2.000000
  0.046858 -0.009018 -0.025507      2.000000
  0.062478 -0.018036 -0.031883      2.000000
  0.078097 -0.027054 -0.038260      2.000000
  0.093717 -0.036072 -0.044636      2.000000
 -0.078097  0.063125  0.025507      2.000000
 -0.062478  0.054107  0.019130      2.000000
 -0.046858  0.045090  0.012753      2.000000
 -0.031239  0.036072  0.006377      2.000000
 -0.015619  0.027054  0.000000      2.000000
  0.000000  0.036072 -0.012753      2.000000
  0.015619  0.027054 -0.019130      2.000000
  0.031239  0.018036 -0.025507      2.000000
  0.046858  0.009018 -0.031883      2.000000
  0.062478  0.000000 -0.038260      2.000000
  0.078097 -0.009018 -0.044636      2.000000
  0.093717 -0.018036 -0.051013      2.000000
 -0.078097  0.081161  0.019130      2.000000
 -0.062478  0.072143  0.012753      2.000000
 -0.046858  0.063125  0.006377      2.000000
 -0.031239  0.054107  0.000000      2.000000
 -0.015619  0.045090 -0.006377      2.000000
  0.000000  0.054107 -0.019130      4.000000
  0.015619  0.045090 -0.025507      4.000000
  0.031239  0.036072 -0.031883      4.000000
  0.046858  0.027054 -0.038260      4.000000
  0.062478  0.018036 -0.044636      4.000000
  0.078097  0.009018 -0.051013      4.000000
  0.093717  0.000000 -0.057390      4.000000
 -0.078097  0.099197  0.012753      4.000000
 -0.062478  0.090179  0.006377      4.000000
 -0.046858  0.081161  0.000000      4.000000
 -0.031239  0.072143 -0.006377      4.000000
 -0.015619  0.063125 -0.012753      4.000000
  0.000000  0.072143 -0.025507      2.000000
  0.015619  0.063125 -0.031883      2.000000
  0.031239  0.054107 -0.038260      2.000000
  0.046858  0.045090 -0.044636      2.000000
  0.062478  0.036072 -0.051013      2.000000
  0.078097  0.027054 -0.057390      2.000000
  0.093717  0.018036 -0.063766      2.000000
 -0.078097  0.117233  0.006377      2.000000
 -0.062478  0.108215  0.000000      2.000000
 -0.046858  0.099197 -0.006377      2.000000
 -0.031239  0.090179 -0.012753      2.000000
 -0.015619  0.081161 -0.019130      2.000000
  0.000000  0.090179 -0.031883      2.000000
  0.015619  0.081161 -0.038260      2.000000
  0.031239  0.072143 -0.044636      2.000000
  0.046858  0.063125 -0.051013      2.000000
  0.062478  0.054107 -0.057390      2.000000
[...]
  0.062478  0.054107  0.057390      2.000000
  0.078097  0.045090  0.051013      2.000000
  0.093717  0.036072  0.044636      2.000000
 -0.078097  0.135269  0.114779      2.000000
 -0.062478  0.126251  0.108403      2.000000
 -0.046858  0.117233  0.102026      2.000000
 -0.031239  0.108215  0.095649      2.000000
 -0.015619  0.099197  0.089273      2.000000
  0.000000  0.108215  0.076520      1.000000
  0.015619  0.099197  0.070143      2.000000
  0.031239  0.090179  0.063766      2.000000
  0.046858  0.081161  0.057390      2.000000
  0.062478  0.072143  0.051013      2.000000
  0.078097  0.063125  0.044636      2.000000
  0.093717  0.054107  0.038260      1.000000

 TETIRR: Found   3456 inequivalent tetrahedra from     6912

 I would recommend the setting:
   dimension x,y,z NGX =    49 NGY =   49 NGZ =   49
 SYSTEM =  diamond
 POSCAR =  C

 Startparameter for this run:
   NWRITE =      2    write-flag & timer
   PREC   = accura    normal or accurate (medium, high low for compatibility)
   ISTART =      0    job   : 0-new  1-cont  2-samecut
   ICHARG =      2    charge: 1-file 2-atom 10-const
   ISPIN  =      1    spin polarized calculation?
   LNONCOLLINEAR =      F non collinear calculations
   LSORBIT =      F    spin-orbit coupling
   INIWAV =      1    electr: 0-lowe 1-rand  2-diag
   LASPH  =      F    aspherical Exc in radial PAW
[...]
 k-point ** :   0.3333 0.3333 0.1250  plane waves:    5520
 k-point ** :   0.4167 0.3333 0.1250  plane waves:    5520
 k-point ** :   0.5000 0.3333 0.1250  plane waves:    5528
 k-point ** :  -0.4167 0.3333 0.1250  plane waves:    5523
 k-point ** :  -0.3333 0.3333 0.1250  plane waves:    5522
 k-point ** :  -0.2500 0.3333 0.1250  plane waves:    5519
 k-point ** :  -0.1667 0.3333 0.1250  plane waves:    5517
 k-point ** :  -0.0833 0.3333 0.1250  plane waves:    5513
 k-point ** :   0.0000 0.4167 0.1250  plane waves:    5512
 k-point ** :   0.0833 0.4167 0.1250  plane waves:    5509
 k-point ** :   0.1667 0.4167 0.1250  plane waves:    5506
 k-point ** :   0.2500 0.4167 0.1250  plane waves:    5515
 k-point ** :   0.3333 0.4167 0.1250  plane waves:    5520
 k-point ** :   0.4167 0.4167 0.1250  plane waves:    5519
 k-point ** :   0.5000 0.4167 0.1250  plane waves:    5528
 k-point ** :  -0.4167 0.4167 0.1250  plane waves:    5514
 k-point ** :  -0.3333 0.4167 0.1250  plane waves:    5521
 k-point ** :  -0.2500 0.4167 0.1250  plane waves:    5522
 k-point ** :  -0.1667 0.4167 0.1250  plane waves:    5517
 k-point ** :  -0.0833 0.4167 0.1250  plane waves:    5510
 k-point ** :   0.0000 0.5000 0.1250  plane waves:    5524
 k-point ** :   0.0833 0.5000 0.1250  plane waves:    5517
 k-point ** :   0.1667 0.5000 0.1250  plane waves:    5506
 k-point ** :   0.2500 0.5000 0.1250  plane waves:    5508
 k-point ** :   0.3333 0.5000 0.1250  plane waves:    5528
 k-point ** :   0.4167 0.5000 0.1250  plane waves:    5528
 k-point ** :   0.5000 0.5000 0.1250  plane waves:    5507
 k-point ** :  -0.4167 0.5000 0.1250  plane waves:    5514
 k-point ** :  -0.3333 0.5000 0.1250  plane waves:    5518
 k-point ** :  -0.2500 0.5000 0.1250  plane waves:    5525
 k-point ** :  -0.1667 0.5000 0.1250  plane waves:    5518
 k-point ** :  -0.0833 0.5000 0.1250  plane waves:    5509
 k-point ** :   0.0000-0.4167 0.1250  plane waves:    5523
[...]
 k-point ** :   0.3333 0.4167 0.5000  plane waves:    5507
 k-point ** :   0.4167 0.4167 0.5000  plane waves:    5515
 k-point ** :   0.5000 0.4167 0.5000  plane waves:    5523
 k-point ** :  -0.4167 0.4167 0.5000  plane waves:    5506
 k-point ** :  -0.3333 0.4167 0.5000  plane waves:    5510
 k-point ** :  -0.2500 0.4167 0.5000  plane waves:    5517
 k-point ** :  -0.1667 0.4167 0.5000  plane waves:    5519
 k-point ** :  -0.0833 0.4167 0.5000  plane waves:    5504
 k-point ** :   0.0000 0.5000 0.5000  plane waves:    5514
 k-point ** :   0.0833 0.5000 0.5000  plane waves:    5515
 k-point ** :   0.1667 0.5000 0.5000  plane waves:    5528
 k-point ** :   0.2500 0.5000 0.5000  plane waves:    5514
 k-point ** :   0.3333 0.5000 0.5000  plane waves:    5518
 k-point ** :   0.4167 0.5000 0.5000  plane waves:    5523
 k-point ** :   0.5000 0.5000 0.5000  plane waves:    5564

 maximum and minimum number of plane-waves per node :      5577     5490

 maximum number of plane-waves:      5577
 maximum index in each direction:
   IXMAX=   12   IYMAX=   12   IZMAX=   12
   IXMIN=  -12   IYMIN=  -12   IZMIN=  -12

 NGX is ok and might be reduce to  50
 NGY is ok and might be reduce to  50
 NGZ is ok and might be reduce to  50

 serial   3D FFT for wavefunctions
 parallel 3D FFT for charge:
    minimum data exchange during FFTs selected (reduces bandwidth)

 Broyden mixing: mesh for mixing (old mesh)
   NGX = 25   NGY = 25   NGZ = 25
  (NGX  =100   NGY  =100   NGZ  =100)
  gives a total of  15625 points

 initial charge density was supplied:
 charge density of overlapping atoms calculated
 number of electron      64.0000000 magnetization
 keeping initial charge density in first step

 Maximum index for augmentation-charges         6707 (set IRDMAX)

 First call to EWALD:  gamma=   0.373
 Maximum number of real-space cells 3x 3x 3
 Maximum number of reciprocal cells 3x 3x 3

 FEWALD executed in parallel

----------------------------------------- Iteration    1(   1)  ---------------------------------------

 BZINTS: Fermi energy: 20.651610; 64.000000 electrons
         Band energy: 314.061592;  BLOECHL correction: -0.168620

 eigenvalue-minimisations  : 45696
 total energy-change (2. order) : 0.2611402E+03  (-0.4351619E+04)
 number of electron      64.0000000 magnetization
 augmentation part       64.0000000 magnetization

 Free energy of the ion-electron system (eV)
  alpha Z        PSCENC =       194.24543572
  Ewald energy   TEWEN  =     -2631.83495257
  -Hartree energ DENC   =      -172.07693315
  -exchange      EXHF   =         0.00000000
  -V(xc)+E(xc)   XCENC  =       220.68194132
  PAW double counting   =       605.30308954     -623.71076428
  entropy T*S    EENTRO =         0.00000000
  eigenvalues    EBANDS =       314.06159244
  atomic energy  EATOM  =      2354.47077523
  free energy    TOTEN  =       261.14018424 eV

  energy without entropy =      261.14018424  energy(sigma->0) =      261.14018424

[...]

 eigenvalue-minimisations  : 58340
 total energy-change (2. order) :-0.3872112E+03  (-0.3673903E+03)
 number of electron      64.0000000 magnetization
 augmentation part       64.0000000 magnetization

[...]

 Broyden mixing:
  rms(total) = 0.10970E+01    rms(broyden)= 0.10970E+01
  rms(prec ) = 0.22168E+01
  weight for this iteration     100.00

[...]

 eigenvalues of (default mixing * dielectric matrix)
  average eigenvalue GAMMA=   2.2366
  2.2366

[...]

 eigenvalue-minimisations  : 39064
 total energy-change (2. order) :-0.1965509E-07  (-0.1112697E-08)
 number of electron      64.0000000 magnetization
 augmentation part        1.2771992 magnetization

 Broyden mixing:
  rms(total) = 0.54168E-05    rms(broyden)= 0.54168E-05
  rms(prec ) = 0.11717E-04
  weight for this iteration     100.00

 eigenvalues of (default mixing * dielectric matrix)
  average eigenvalue GAMMA=   1.7320
  2.9741  2.6662  2.5106  2.0302  1.2029  1.2029  1.0304  1.0304  0.9401

[...]

----------------------------------------- Iteration    1(  15)  ---------------------------------------

[...]

 eigenvalue-minimisations  : 38858
 total energy-change (2. order) : 0.1038643E-08  (-0.1887114E-09)
 number of electron      64.0000000 magnetization
 augmentation part        1.2771992 magnetization

 Free energy of the ion-electron system (eV)
  alpha Z        PSCENC =       194.24543572
  Ewald energy   TEWEN  =     -2631.83495257
  -Hartree energ DENC   =      -231.13209245
  -exchange      EXHF   =         0.00000000
  -V(xc)+E(xc)   XCENC  =       226.16193520
  PAW double counting   =       896.06888122     -915.67553286
  entropy T*S    EENTRO =         0.00000000
  eigenvalues    EBANDS =       -34.85900266
  atomic energy  EATOM  =      2354.47077523
  free energy    TOTEN  =      -142.55455318 eV

  energy without entropy =     -142.55455318  energy(sigma->0) =     -142.55455318

 average (electrostatic) potential at core
  the test charge radii are     0.6991
  (the norm of the test charge is              1.0000)
       1 -47.7248       2 -47.7247       3 -47.7305       4 -47.7189       5 -47.7305
       6 -47.7189       7 -47.7247       8 -47.7247       9 -47.7320      10 -47.7173
      11 -47.7247      12 -47.7247      13 -47.7247      14 -47.7247      15 -47.7270
      16 -47.7223

 E-fermi :   7.5284     XC(G=0): -12.3974     alpha+bet :-14.9578

 k-point     1 :       0.0000    0.0000    0.0000
  band No.  band energies     occupation
      1     -11.8805      2.00000
      2      -7.0173      2.00000
      3      -7.0060      2.00000
      4      -7.0059      2.00000
      5      -6.9952      2.00000
      6      -4.2267      2.00000
      7      -4.2057      2.00000
      8      -4.2016      2.00000
      9      -4.2003      2.00000
     10      -4.1984      2.00000
     11      -4.1944      2.00000
     12      -4.1875      2.00000
     13      -4.1827      2.00000
     14      -4.1813      2.00000
     15      -4.1619      2.00000
     16       2.1096      2.00000
     17       2.1190      2.00000
     18       2.1197      2.00000
     19       2.1198      2.00000
     20       2.1205      2.00000
     21       2.1298      2.00000
     22       5.0448      2.00000
     23       5.0651      2.00000
     24       5.0712      2.00000
     25       5.0717      2.00000
     26       5.0741      2.00000
     27       5.0746      2.00000
     28       5.0808      2.00000
     29       5.1009      2.00000
     30       7.4486      2.00000
     31       7.4648      2.00000
     32       7.4814      2.00000
     33      11.8382      0.00000
     34      11.8492      0.00000
     35      11.8582      0.00000
     36      11.8583      0.00000
     37      11.8670      0.00000
     38      11.8769      0.00000
     39      12.5794      0.00000
     40      12.5942      0.00000
     41      12.6091      0.00000
     42      14.1547      0.00000

[...]

 k-point   544 :       0.5000    0.5000    0.5000
  band No.  band energies     occupation
      1     -10.3710      2.00000
      2     -10.3563      2.00000
      3      -6.6431      2.00000
      4      -6.6258      2.00000
      5      -6.6248      2.00000
      6      -6.6221      2.00000
      7      -6.6216      2.00000
      8      -6.6077      2.00000
      9      -2.2178      2.00000
     10      -2.2139      2.00000
     11      -2.2134      2.00000
     12      -2.2081      2.00000
     13      -2.2065      2.00000
     14      -2.1884      2.00000
     15       1.5323      2.00000
     16       1.5701      2.00000
     17       1.5739      2.00000
     18       1.5796      2.00000
     19       1.5809      2.00000
     20       1.5823      2.00000
     21       1.6023      2.00000
     22       1.6093      2.00000
     23       3.3274      2.00000
     24       3.3285      2.00000
     25       3.3323      2.00000
     26       3.3382      2.00000
     27       3.3449      2.00000
     28       3.3597      2.00000
     29       5.9835      2.00000
     30       5.9840      2.00000
     31       5.9894      2.00000
     32       6.0143      2.00000
     33      12.9811      0.00000
     34      12.9846      0.00000
     35      12.9849      0.00000
     36      12.9866      0.00000
     37      13.0050      0.00000
     38      13.0069      0.00000
     39      14.0507      0.00000
     40      14.0653      0.00000
     41      14.4666      0.00000
     42      14.4883      0.00000

 soft charge-density along one line, spin component           1
         0         1         2         3         4         5         6         7         8         9
 total charge-density along one line

------------------------ aborting loop because EDIFF is reached ----------------------------------------

         DFTD3 V3.0 Rev 1
 IVDW         = 12
 DF pbe
 parameters
 VDW_S6       =    1.0000
 VDW_S8       =    0.7875
 VDW_A1       =    0.4289
 VDW_A2       =    4.4407
 k1-k3        =   16.0000    1.3333   -4.0000
 VDW_RADIUS   =   50.2022 A
 VDW_CNRADIUS =   21.1671 A
 Edisp (eV)   -2.59237

 E6    (eV) :    -1.8431
 E8    (eV) :    -0.7492
 % E8        : 28.90

  FORCE on cell =-STRESS in cart. coord.  units (eV):
  Direction    XX          YY          ZZ          XY          YZ          ZX
  Alpha Z   194.24544   194.24544   194.24544
  Ewald    -877.28098  -877.27809  -877.28436     1.32935     0.00878     0.93999
  Hartree    77.04279    77.04512    77.04422     0.23181     0.00128     0.16391
  E(xc)    -230.63361  -230.63362  -230.63364     0.00498     0.00003     0.00352
  Local    -114.89066  -114.89713  -114.89108    -1.39167    -0.00851    -0.98406
  n-local   -42.45483   -42.26445   -42.64471     0.08271    -0.06726    -0.08424
  augment    -4.54242    -4.54243    -4.54243    -0.00049     0.00000    -0.00035
  Kinetic   963.50174   962.25139   964.75062    -0.73246     0.44126     0.55422
  Fock        0.00000     0.00000     0.00000     0.00000     0.00000     0.00000
  vdW        -2.51978    -2.51979    -2.51979    -0.00026     0.00000    -0.00018
  Total     -37.53232   -37.53427   -37.53503    -0.03790     0.00107    -0.02680
  in kB    -559.98312  -560.01226  -560.02353    -0.56552     0.01594    -0.39988

 VOLUME and BASIS-vectors are now :
  energy-cutoff  :      800.00
  volume of cell :      107.38
      direct lattice vectors                 reciprocal lattice vectors
     5.335216059  0.000000000  0.000000000     0.187433834 -0.108214974 -0.076519542
     2.667608029  4.620432642  0.000000000     0.000000000  0.216429949 -0.076519542
     2.667608029  1.540144214  4.356185670     0.000000000  0.000000000  0.229558627

  length of vectors
     5.335216059  5.335216059  5.335216059     0.229558627  0.229558627  0.229558627

 FORCES acting on ions
    electron-ion (+dipol)            ewald-force                    non-local-force                 convergence-correction
   0.119E+01 0.123E-01 0.871E-02   -.135E+01 -.143E-01 -.101E-01   -.162E+00 -.379E-03 -.268E-03   -.208E-04 -.237E-05 -.168E-05
   -.466E+00 0.218E-03 0.154E-03   0.493E+00 -.833E-06 -.234E-05   0.224E-01 -.199E-03 -.141E-03   0.143E-04 -.161E-05 -.114E-05
   -.559E-01 -.237E+00 -.253E-01   0.434E-01 0.260E+00 0.128E-01   0.125E-01 0.573E-02 0.283E-02   0.247E-05 0.895E-05 -.457E-05
   -.559E-01 0.237E+00 0.253E-01   0.434E-01 -.260E+00 -.128E-01   0.126E-01 -.572E-02 -.291E-02   0.182E-05 -.509E-05 0.210E-05
   -.559E-01 -.103E+00 -.215E+00   0.434E-01 0.986E-01 0.241E+00   0.125E-01 0.458E-02 0.446E-02   0.247E-05 -.132E-05 0.996E-05
   -.559E-01 0.103E+00 0.215E+00   0.434E-01 -.986E-01 -.241E+00   0.126E-01 -.465E-02 -.442E-02   0.182E-05 0.282E-06 -.550E-05
   0.122E+00 -.579E-04 -.409E-04   -.127E+00 -.833E-06 -.234E-05   0.453E-02 0.232E-04 0.164E-04   0.295E-05 -.280E-06 -.198E-06
   -.830E-01 0.838E-05 0.596E-05   0.899E-01 -.833E-06 -.234E-05   -.358E-02 -.535E-06 -.378E-06   -.583E-05 0.609E-06 0.430E-06
   -.541E+00 -.583E+00 -.412E+00   0.619E+00 0.615E+00 0.435E+00   -.285E-02 -.278E-01 -.196E-01   0.252E-05 0.662E-05 0.468E-05
   -.540E+00 0.573E+00 0.405E+00   0.617E+00 -.604E+00 -.427E+00   -.522E-02 0.284E-01 0.201E-01   0.278E-05 -.654E-05 -.463E-05
   0.460E+00 -.472E-02 0.176E-02   -.438E+00 0.467E-02 -.148E-02   0.446E-01 0.175E-03 -.927E-04   -.840E-05 -.324E-07 0.332E-06
   -.173E+00 0.114E-02 -.200E-03   0.162E+00 -.119E-02 0.225E-03   0.541E-02 0.976E-05 0.144E-05   0.475E-05 0.208E-06 -.381E-07
   0.460E+00 0.764E-04 -.503E-02   -.438E+00 0.158E-03 0.490E-02   0.446E-01 -.290E-04 0.196E-03   -.840E-05 0.302E-06 -.141E-06
   -.173E+00 0.185E-03 0.115E-02   0.162E+00 -.186E-03 -.120E-02   0.541E-02 0.462E-05 0.872E-05   0.475E-05 0.336E-07 0.209E-06
   -.169E-01 -.901E-01 -.637E-01   0.172E-01 0.836E-01 0.591E-01   -.179E-02 0.418E-02 0.295E-02   0.127E-05 0.191E-05 0.135E-05
   -.175E-01 0.901E-01 0.637E-01   0.178E-01 -.836E-01 -.591E-01   -.182E-02 -.415E-02 -.294E-02   0.141E-05 -.221E-05 -.156E-05
   0.713E-05 -.220E-03 -.107E-03   -.102E-14 -.372E-14 -.697E-14   -.120E-04 0.196E-03 0.138E-03   -.967E-07 -.559E-06 -.395E-06

 POSITION                                       TOTAL-FORCE (eV/Angst)
      0.01000      0.00000      0.00000        -0.317083     -0.002332     -0.001649
      2.66761      0.00000      0.00000         0.049839      0.000015      0.000011
      1.33380      2.31022      0.00000         0.000001      0.028729     -0.009668
      4.00141      2.31022      0.00000         0.000033     -0.028797      0.009575
      1.33380      0.77007      2.17809         0.000001      0.000461      0.030308
      4.00141      0.77007      2.17809         0.000033     -0.000571     -0.030341
      2.66761      3.08029      2.17809        -0.000877     -0.000036     -0.000026
      5.33522      3.08029      2.17809         0.003315      0.000007      0.000005
      1.33380      0.77007      0.54452         0.074870      0.004962      0.003508
      4.00141      0.77007      0.54452         0.071140     -0.002741     -0.001938
      2.66761      3.08029      0.54452         0.066355      0.000129      0.000176
      5.33522      3.08029      0.54452        -0.005483     -0.000038      0.000021
      2.66761      1.54014      2.72262         0.066355      0.000209      0.000063
      5.33522      1.54014      2.72262        -0.005483      0.000008     -0.000043
      4.00141      3.85036      2.72262        -0.001515     -0.002298     -0.001625
      6.66902      3.85036      2.72262        -0.001499      0.002293      0.001622
    total drift:                               -0.000005     -0.000025      0.000032

  FREE ENERGIE OF THE ION-ELECTRON SYSTEM (eV)
  free  energy   TOTEN  =      -145.14692054 eV

  energy  without entropy=     -145.14692054  energy(sigma->0) =     -145.14692054

 BZINTS: Fermi energy:  7.528364; 64.000000 electrons
         Band energy: -34.859003;  BLOECHL correction:  0.000000