 vasp.5.3.5 31Mar14 (build Nov 02 2014 15:17:37) complex

 executed on        ion-Intel-MKL date 2016.08.27  00:47:32

 INCAR:
 POTCAR:   PAW_PBE C 08Apr2002
 POTCAR:   PAW_PBE C 08Apr2002
   VRHFIN =C: s2p2

   TITEL  = PAW_PBE C 08Apr2002
   POMASS =   12.011; ZVAL   =    4.000    mass and valenz
   ENMAX  =  400.000; ENMIN  =  300.000 eV
   QCUT   =   -5.516; QGAM   =   11.032    optimization parameters

   Description
     l     E      TYP  RCUT    TYP  RCUT
     0   .000     23  1.200
     0   .000     23  1.200
     1   .000     23  1.500
     1  2.500     23  1.500
     2   .000      7  1.500

 PAW_PBE C 08Apr2002                    :

 POSCAR: CIF file
  positions in direct lattice
  velocities in cartesian coordinates
 exchange correlation table for  LEXCH =        8
   RHO(1)=    0.500       N(1)  =     2000
   RHO(2)=  100.500       N(2)  =     4000

 ion  position               nearest neighbor table
   1  0.999  0.001  0.250-   2 1.33   2 1.33   3 1.42   3 1.42   3 1.42   4 1.94   4 1.94   4 1.95
                             4 1.95   4 1.95   4 1.95
   2  0.001  0.999  0.750-   1 1.33   1 1.33   4 1.42   4 1.42   4 1.42   3 1.94   3 1.94   3 1.95
                             3 1.95   3 1.95   3 1.95
   3  0.333  0.667  0.250-   1 1.42   1 1.42   1 1.42   2 1.94   2 1.94   4 1.94   4 1.94   4 1.94
                             4 1.94   2 1.95   2 1.95   2 1.95   2 1.95   4 1.95   4 1.95
   4  0.667  0.333  0.750-   2 1.42   2 1.42   2 1.42   1 1.94   1 1.94   3 1.94   3 1.94   3 1.94
                             3 1.94   1 1.95   1 1.95   1 1.95   1 1.95   3 1.95   3 1.95

  LATTYP: Found a base centered orthorhombic cell.
 ALAT       =     2.4647750986
 B/A-ratio  =     1.7336081796
 C/A-ratio  =     1.0762443571

  Lattice vectors:

 A1 = (   2.4664372490,  -0.0009596430,   0.0000000000)
 A2 = (  -1.2340496996,   2.1355174929,   0.0000000000)
 A3 = (   0.0000000000,   0.0000000000,   2.6527002913)

Analysis of symmetry for initial positions (statically):
 Subroutine PRICEL returns:
 Original cell was already a primitive cell.

 Routine SETGRP: Setting up the symmetry group for a
 base centered orthorhombic supercell.

 Subroutine GETGRP returns: Found  8 space group operations
 (whereof  4 operations were pure point group operations)
 out of a pool of  8 trial point group operations.

The static configuration has the point symmetry C_2h.
 The point group associated with its full space group is D_2h.

Analysis of symmetry for dynamics (positions and initial velocities):
 Subroutine PRICEL returns:
 Original cell was already a primitive cell.

 Routine SETGRP: Setting up the symmetry group for a
 base centered orthorhombic supercell.

 Subroutine GETGRP returns: Found  8 space group operations
 (whereof  4 operations were pure point group operations)
 out of a pool of  8 trial point group operations.

The dynamic configuration has the point symmetry C_2h.
 The point group associated with its full space group is D_2h.

 KPOINTS: B4C B11C-CBC

Automatic generation of k-mesh.
Space group operators:
 irot       det(A)        alpha          n_x          n_y          n_z        tau_x        tau_y        tau_z
    1     1.000000     0.000000     1.000000     0.000000     0.000000     0.000000     0.000000     0.000000
    2    -1.000000     0.000000     1.000000     0.000000     0.000000     0.000000     0.000000     0.000000
    3     1.000000   180.000000    -0.500000    -0.866025     0.000000     0.000000     0.000000     0.000000
    4    -1.000000   180.000000    -0.500000    -0.866025     0.000000     0.000000     0.000000     0.000000
    5     1.000000   179.999999     0.000000     0.000000     1.000000     0.000000     0.000000     0.500000
    6    -1.000000   179.999999     0.000000     0.000000     1.000000     0.000000     0.000000     0.500000
    7     1.000000   180.000000     0.866025    -0.500000     0.000000     0.000000     0.000000     0.500000
    8    -1.000000   180.000000     0.866025    -0.500000     0.000000     0.000000     0.000000     0.500000

 Subroutine IBZKPT returns following result:

 Found    455 irreducible k-points:

 Following reciprocal coordinates:
            Coordinates               Weight
  0.000000  0.000000  0.000000      1.000000
  0.055556 -0.000000  0.000000      4.000000
  0.111111 -0.000000  0.000000      4.000000
  0.166667 -0.000000  0.000000      4.000000
  0.222222 -0.000000  0.000000      4.000000
  0.277778 -0.000000  0.000000      4.000000
  0.333333 -0.000000  0.000000      4.000000
  0.388889  0.000000  0.000000      4.000000
  0.444444 -0.000000  0.000000      4.000000
  0.500000 -0.000000  0.000000      2.000000
  0.055556  0.055556  0.000000      2.000000
  0.111111  0.055556  0.000000      4.000000
  0.166667  0.055556  0.000000      4.000000
  0.222222  0.055556  0.000000      4.000000
  0.277778  0.055556  0.000000      4.000000
  0.333333  0.055556  0.000000      4.000000
  0.388889  0.055556  0.000000      4.000000
  0.444444  0.055556  0.000000      4.000000
  0.500000  0.055556  0.000000      4.000000
 -0.444444  0.055556  0.000000      4.000000
 -0.388889  0.055556  0.000000      4.000000
 -0.333333  0.055556  0.000000      4.000000
 -0.277778  0.055556  0.000000      4.000000
 -0.222222  0.055556  0.000000      4.000000
 -0.166667  0.055556  0.000000      4.000000
 -0.111111  0.055556  0.000000      4.000000
 -0.055556  0.055556  0.000000      2.000000
  0.111111  0.111111  0.000000      2.000000
  0.166667  0.111111  0.000000      4.000000
  0.222222  0.111111  0.000000      4.000000
  0.277778  0.111111  0.000000      4.000000
  0.333333  0.111111  0.000000      4.000000
  0.388889  0.111111  0.000000      4.000000
  0.444444  0.111111  0.000000      4.000000
  0.500000  0.111111  0.000000      4.000000
 -0.444444  0.111111  0.000000      4.000000
 -0.388889  0.111111  0.000000      4.000000
 -0.333333  0.111111  0.000000      4.000000
 -0.277778  0.111111  0.000000      4.000000
 -0.222222  0.111111  0.000000      4.000000
 -0.166667  0.111111  0.000000      4.000000
 -0.111111  0.111111  0.000000      2.000000
  0.166667  0.166667  0.000000      2.000000
  0.222222  0.166667  0.000000      4.000000
  0.277778  0.166667  0.000000      4.000000
  0.333333  0.166667  0.000000      4.000000
  0.388889  0.166667  0.000000      4.000000
  0.444444  0.166667  0.000000      4.000000
  0.500000  0.166667  0.000000      4.000000
 -0.444444  0.166667  0.000000      4.000000
 -0.388889  0.166667  0.000000      4.000000
 -0.333333  0.166667  0.000000      4.000000
 -0.277778  0.166667  0.000000      4.000000
 -0.222222  0.166667  0.000000      4.000000
 -0.166667  0.166667  0.000000      2.000000
  0.222222  0.222222  0.000000      2.000000
  0.277778  0.222222  0.000000      4.000000
  0.333333  0.222222  0.000000      4.000000
  0.388889  0.222222  0.000000      4.000000
  0.444444  0.222222  0.000000      4.000000
[...]
  0.388889  0.333333  0.500000      4.000000
  0.444444  0.333333  0.500000      4.000000
  0.500000  0.333333  0.500000      4.000000
 -0.444444  0.333333  0.500000      4.000000
 -0.388889  0.333333  0.500000      4.000000
 -0.333333  0.333333  0.500000      2.000000
  0.388889  0.388889  0.500000      2.000000
  0.444444  0.388889  0.500000      4.000000
  0.500000  0.388889  0.500000      4.000000
 -0.444444  0.388889  0.500000      4.000000
 -0.388889  0.388889  0.500000      2.000000
  0.444444  0.444444  0.500000      2.000000
  0.500000  0.444444  0.500000      4.000000
 -0.444444  0.444444  0.500000      2.000000
  0.500000  0.500000  0.500000      1.000000

 Following cartesian coordinates:
            Coordinates               Weight
  0.000000  0.000000  0.000000      1.000000
  0.022530  0.013019  0.000000      4.000000
  0.045059  0.026038  0.000000      4.000000
  0.067589  0.039058  0.000000      4.000000
  0.090119  0.052077  0.000000      4.000000
  0.112648  0.065096  0.000000      4.000000
  0.135178  0.078115  0.000000      4.000000
  0.157708  0.091134  0.000000      4.000000
  0.180237  0.104154  0.000000      4.000000
  0.202767  0.117173  0.000000      2.000000
  0.022540  0.039040  0.000000      2.000000
  0.045069  0.052059  0.000000      4.000000
  0.067599  0.065079  0.000000      4.000000
  0.090129  0.078098  0.000000      4.000000
  0.112659  0.091117  0.000000      4.000000
  0.135188  0.104136  0.000000      4.000000
  0.157718  0.117155  0.000000      4.000000
  0.180248  0.130175  0.000000      4.000000
  0.202777  0.143194  0.000000      4.000000
 -0.180227 -0.078133  0.000000      4.000000
 -0.157698 -0.065114  0.000000      4.000000
 -0.135168 -0.052094  0.000000      4.000000
 -0.112638 -0.039075  0.000000      4.000000
 -0.090109 -0.026056  0.000000      4.000000
 -0.067579 -0.013037  0.000000      4.000000
 -0.045049 -0.000018  0.000000      4.000000
 -0.022520  0.013002  0.000000      2.000000
  0.045080  0.078080  0.000000      2.000000
  0.067609  0.091099  0.000000      4.000000
  0.090139  0.104119  0.000000      4.000000
  0.112669  0.117138  0.000000      4.000000
  0.135198  0.130157  0.000000      4.000000
  0.157728  0.143176  0.000000      4.000000
  0.180258  0.156195  0.000000      4.000000
  0.202787  0.169215  0.000000      4.000000
 -0.180217 -0.052112  0.000000      4.000000
 -0.157688 -0.039093  0.000000      4.000000
 -0.135158 -0.026073  0.000000      4.000000
 -0.112628 -0.013054  0.000000      4.000000
 -0.090098 -0.000035  0.000000      4.000000
 -0.067569  0.012984  0.000000      4.000000
 -0.045039  0.026003  0.000000      2.000000
  0.067619  0.117120  0.000000      2.000000
  0.090149  0.130139  0.000000      4.000000
  0.112679  0.143159  0.000000      4.000000
  0.135208  0.156178  0.000000      4.000000
  0.157738  0.169197  0.000000      4.000000
  0.180268  0.182216  0.000000      4.000000
  0.202798  0.195236  0.000000      4.000000
 -0.180207 -0.026091  0.000000      4.000000
 -0.157677 -0.013072  0.000000      4.000000
 -0.135148 -0.000053  0.000000      4.000000
 -0.112618  0.012967  0.000000      4.000000
 -0.090088  0.025986  0.000000      4.000000
 -0.067559  0.039005  0.000000      2.000000
  0.090159  0.156160  0.000000      2.000000
  0.112689  0.169180  0.000000      4.000000
  0.135219  0.182199  0.000000      4.000000
  0.157748  0.195218  0.000000      4.000000
  0.180278  0.208237  0.000000      4.000000
[...]
  0.157769  0.247260  0.188487      4.000000
  0.180298  0.260279  0.188487      4.000000
  0.202828  0.273298  0.188487      4.000000
 -0.180177  0.051972  0.188487      4.000000
 -0.157647  0.064991  0.188487      4.000000
 -0.135117  0.078010  0.188487      2.000000
  0.157779  0.273281  0.188487      2.000000
  0.180308  0.286300  0.188487      4.000000
  0.202838  0.299319  0.188487      4.000000
 -0.180167  0.077993  0.188487      4.000000
 -0.157637  0.091012  0.188487      2.000000
  0.180318  0.312321  0.188487      2.000000
  0.202848  0.325340  0.188487      4.000000
 -0.180156  0.104013  0.188487      2.000000
  0.202858  0.351361  0.188487      1.000000

 TETIRR: Found   3888 inequivalent tetrahedra from    15552

 I would recommend the setting:
[...]
 k-point ** :  -0.4444 0.1111 0.1250  plane waves:     467
 k-point ** :  -0.3889 0.1111 0.1250  plane waves:     465
 k-point ** :  -0.3333 0.1111 0.1250  plane waves:     465
 k-point ** :  -0.2778 0.1111 0.1250  plane waves:     467
 k-point ** :  -0.2222 0.1111 0.1250  plane waves:     467
 k-point ** :  -0.1667 0.1111 0.1250  plane waves:     461
 k-point ** :  -0.1111 0.1111 0.1250  plane waves:     461
 k-point ** :   0.1667 0.1667 0.1250  plane waves:     466
 k-point ** :   0.2222 0.1667 0.1250  plane waves:     465
 k-point ** :   0.2778 0.1667 0.1250  plane waves:     468
 k-point ** :   0.3333 0.1667 0.1250  plane waves:     470
 k-point ** :   0.3889 0.1667 0.1250  plane waves:     471
 k-point ** :   0.4444 0.1667 0.1250  plane waves:     472
 k-point ** :   0.5000 0.1667 0.1250  plane waves:     469
 k-point ** :  -0.4444 0.1667 0.1250  plane waves:     467
 k-point ** :  -0.3889 0.1667 0.1250  plane waves:     464
 k-point ** :  -0.3333 0.1667 0.1250  plane waves:     466
 k-point ** :  -0.2778 0.1667 0.1250  plane waves:     467
 k-point ** :  -0.2222 0.1667 0.1250  plane waves:     467
 k-point ** :  -0.1667 0.1667 0.1250  plane waves:     461
 k-point ** :   0.2222 0.2222 0.1250  plane waves:     468
 k-point ** :   0.2778 0.2222 0.1250  plane waves:     470
 k-point ** :   0.3333 0.2222 0.1250  plane waves:     474
 k-point ** :   0.3889 0.2222 0.1250  plane waves:     474
 k-point ** :   0.4444 0.2222 0.1250  plane waves:     474
 k-point ** :   0.5000 0.2222 0.1250  plane waves:     470
 k-point ** :  -0.4444 0.2222 0.1250  plane waves:     468
 k-point ** :  -0.3889 0.2222 0.1250  plane waves:     463
 k-point ** :  -0.3333 0.2222 0.1250  plane waves:     464
 k-point ** :  -0.2778 0.2222 0.1250  plane waves:     467
 k-point ** :  -0.2222 0.2222 0.1250  plane waves:     467
 k-point ** :   0.2778 0.2778 0.1250  plane waves:     473
 k-point ** :   0.3333 0.2778 0.1250  plane waves:     473
[...]
 k-point ** :   0.3889 0.3333 0.5000  plane waves:     472
 k-point ** :   0.4444 0.3333 0.5000  plane waves:     476
 k-point ** :   0.5000 0.3333 0.5000  plane waves:     470
 k-point ** :  -0.4444 0.3333 0.5000  plane waves:     464
 k-point ** :  -0.3889 0.3333 0.5000  plane waves:     464
 k-point ** :  -0.3333 0.3333 0.5000  plane waves:     464
 k-point ** :   0.3889 0.3889 0.5000  plane waves:     470
 k-point ** :   0.4444 0.3889 0.5000  plane waves:     476
 k-point ** :   0.5000 0.3889 0.5000  plane waves:     470
 k-point ** :  -0.4444 0.3889 0.5000  plane waves:     464
 k-point ** :  -0.3889 0.3889 0.5000  plane waves:     464
 k-point ** :   0.4444 0.4444 0.5000  plane waves:     474
 k-point ** :   0.5000 0.4444 0.5000  plane waves:     468
 k-point ** :  -0.4444 0.4444 0.5000  plane waves:     468
 k-point ** :   0.5000 0.5000 0.5000  plane waves:     456

 maximum and minimum number of plane-waves per node :       482      449

 maximum number of plane-waves:       482
 maximum index in each direction:
   IXMAX=    5   IYMAX=    4   IZMAX=    5
   IXMIN=   -5   IYMIN=   -5   IZMIN=   -5

 WARNING: aliasing errors must be expected set NGX to  22 to avoid them
 NGY is ok and might be reduce to  20
 NGZ is ok and might be reduce to  22
 aliasing errors are usually negligible using standard VASP settings
 and one can safely disregard these warnings

 serial   3D FFT for wavefunctions
 parallel 3D FFT for charge:
    minimum data exchange during FFTs selected (reduces bandwidth)

 Broyden mixing: mesh for mixing (old mesh)
   NGX =  9   NGY =  9   NGZ = 11
  (NGX  = 40   NGY  = 40   NGZ  = 48)
  gives a total of    891 points

 initial charge density was supplied:
 charge density of overlapping atoms calculated
 number of electron      16.0000000 magnetization
 keeping initial charge density in first step

 Maximum index for augmentation-charges         7873 (set IRDMAX)

 First call to EWALD:  gamma=   0.736
 Maximum number of real-space cells 3x 3x 3
 Maximum number of reciprocal cells 3x 3x 3

 FEWALD executed in parallel

----------------------------------------- Iteration    1(   1)  ---------------------------------------

 BZINTS: Fermi energy: 27.461481; 16.000000 electrons
         Band energy: 161.792092;  BLOECHL correction: -0.616797

 eigenvalue-minimisations  : 10968
 total energy-change (2. order) : 0.4864407E+02  (-0.9948257E+03)
 number of electron      16.0000000 magnetization
 augmentation part       16.0000000 magnetization

 Free energy of the ion-electron system (eV)
  alpha Z        PSCENC =        93.32718035
  Ewald energy   TEWEN  =      -840.43719794
  -Hartree energ DENC   =       -14.05392957
  -exchange      EXHF   =         0.00000000
  -V(xc)+E(xc)   XCENC  =        64.01669114
  PAW double counting   =       151.32577238     -155.92769107
  entropy T*S    EENTRO =         0.00000000
  eigenvalues    EBANDS =       161.79209187
  atomic energy  EATOM  =       588.60115103
  free energy    TOTEN  =        48.64406819 eV

  energy without entropy =       48.64406819  energy(sigma->0) =       48.64406819

[...]

 eigenvalue-minimisations  : 14036
 total energy-change (2. order) :-0.6146030E+02  (-0.5447103E+02)
 number of electron      16.0000000 magnetization
 augmentation part       16.0000000 magnetization

[...]

 Broyden mixing:
  rms(total) = 0.82770E+00    rms(broyden)= 0.82758E+00
  rms(prec ) = 0.24034E+01
  weight for this iteration     100.00

[...]

 eigenvalues of (default mixing * dielectric matrix)
  average eigenvalue GAMMA=   1.6987
  1.6987

[...]

 average (electrostatic) potential at core
  the test charge radii are     0.6991
  (the norm of the test charge is              1.0000)
       1 -38.7646       2 -38.7646       3 -37.7567       4 -37.7567

 E-fermi :  19.8697     XC(G=0): -16.1450     alpha+bet :-28.7466

 k-point     1 :       0.0000    0.0000    0.0000
  band No.  band energies     occupation
      1     -11.1261      2.00000
      2       1.4895      2.00000
      3       8.8979      2.00000
      4       8.9699      2.00000
      5       9.4970      2.00000
      6      13.7373      2.00000
      7      13.8173      2.00000
      8      20.9237      0.00000
      9      21.0221      0.00000
     10      25.5576      0.00000
     11      25.6601      0.00000
     12      27.0702      0.00000

[...]

 soft charge-density along one line, spin component           1
         0         1         2         3         4         5         6         7         8         9
 total charge-density along one line

------------------------ aborting loop because EDIFF is reached ----------------------------------------

         DFTD3 V3.0 Rev 1
 IVDW         = 12
 DF pbe
 parameters
 VDW_S6       =    1.0000
 VDW_S8       =    0.7875
 VDW_A1       =    0.4289
 VDW_A2       =    4.4407
 k1-k3        =   16.0000    1.3333   -4.0000
 VDW_RADIUS   =   50.2022 A
 VDW_CNRADIUS =   21.1671 A
 Edisp (eV)   -1.25012

 E6    (eV) :    -0.8899
 E8    (eV) :    -0.3602
 % E8        : 28.82

  FORCE on cell =-STRESS in cart. coord.  units (eV):
  Direction    XX          YY          ZZ          XY          YZ          ZX
  Alpha Z    93.32718    93.32718    93.32718
  Ewald    -287.87048  -288.31077  -264.25709    -0.38130     0.00000     0.00000
  Hartree     6.33810     6.21163    13.62943    -0.10952    -0.00000    -0.00000
  E(xc)     -65.57049   -65.57112   -65.60750    -0.00054    -0.00000     0.00000
  Local       6.17168     6.67737    -9.81725     0.43794    -0.00000     0.00000
  n-local    -9.28441   -13.24531   -15.27831     1.15457    -0.55273     0.87673
  augment    -1.73094    -1.73062    -1.90695     0.00028     0.00000    -0.00000
  Kinetic   272.23180   314.42413   321.15717   -12.23573     5.80451    -7.49933
  Fock        0.00000     0.00000     0.00000     0.00000     0.00000     0.00000
  vdW        -1.26292    -1.26285    -1.26773     0.00006     0.00000    -0.00000
  Total      31.48457    31.38458    69.97895    -0.08659    -0.00000     0.00000
  in kB    3611.14193  3599.67416  8026.27985    -9.93138    -0.00000     0.00000

 VOLUME and BASIS-vectors are now :
  energy-cutoff  :      600.00
  volume of cell :       13.97
      direct lattice vectors                 reciprocal lattice vectors
     2.466437249 -0.000959643  0.000000000     0.405534294  0.234345762  0.000000000
    -1.234049700  2.135517493  0.000000000     0.000182236  0.468375882  0.000000000
     0.000000000  0.000000000  2.652700291     0.000000000  0.000000000  0.376974362

[...]

 FORCES acting on ions
    electron-ion (+dipol)            ewald-force                    non-local-force                 convergence-correction
   0.262E+00 -.152E+00 0.327E-13   -.272E+00 0.157E+00 0.348E-14   -.682E-02 0.394E-02 0.416E-16   -.127E-04 0.732E-05 0.216E-15
   -.262E+00 0.152E+00 -.673E-13   0.272E+00 -.157E+00 -.447E-14   0.682E-02 -.394E-02 -.139E-16   0.127E-04 -.731E-05 -.249E-15
   -.274E+00 0.158E+00 0.203E-12   0.335E+00 -.194E+00 -.182E-14   0.200E-02 -.115E-02 0.000E+00   -.342E-04 0.197E-04 -.355E-14
   0.274E+00 -.158E+00 -.738E-12   -.335E+00 0.194E+00 0.322E-14   -.200E-02 0.115E-02 0.000E+00   0.342E-04 -.197E-04 0.652E-15
   -.125E-04 -.217E-04 -.570E-12   -.117E-14 -.583E-15 0.416E-15   -.833E-16 0.278E-16 0.278E-16   0.362E-08 0.628E-08 -.293E-14

 POSITION                                       TOTAL-FORCE (eV/Angst)
      2.46402      0.00044      0.66318        -0.015933      0.009199      0.000000
     -1.23163      2.13412      1.98953         0.015933     -0.009199     -0.000000
     -0.00332      1.42496      0.66318         0.063755     -0.036809     -0.000000
      1.23571      0.70960      1.98953        -0.063755      0.036809      0.000000
    total drift:                               -0.000013     -0.000022     -0.000000

  FREE ENERGIE OF THE ION-ELECTRON SYSTEM (eV)
  free  energy   TOTEN  =       -14.14357020 eV

  energy  without entropy=      -14.14357020  energy(sigma->0) =      -14.14357020

[...]

         DFTD3 V3.0 Rev 1
 Edisp (eV)   -1.25012

[...]

 d Force =-0.1276112E-03[-0.811E-03, 0.556E-03]  d Energy =-0.2712537E-03 0.144E-03
 d Force =-0.1352782E-02[-0.601E-02, 0.331E-02]  d Ewald  =-0.1358454E-02 0.567E-05

 Steepest descent step on ions:
 trial-energy change:    0.000271  1 .order    0.000128   -0.000556    0.000811
  (g-gl).g = 0.556E-03      g.g   = 0.556E-03  gl.gl    = 0.000E+00
 g(Force)  = 0.556E-03   g(Stress)= 0.000E+00 ortho     = 0.000E+00
 gamma     =   0.00000
 trial     =   1.00000
 opt step  =   0.27956  (harmonic =   0.40661) maximal distance =0.00085986
 next E    =   -14.143645   (d E  =  -0.00007)

 FEWALD executed in parallel

[...]

 eigenvalue-minimisations  : 12940
 total energy-change (2. order) : 0.2949525E-04  (-0.5064013E-05)
 number of electron      16.0000000 magnetization
 augmentation part        0.4035989 magnetization

 Broyden mixing:
  rms(total) = 0.41380E-03    rms(broyden)= 0.41363E-03
  rms(prec ) = 0.10026E-02
  weight for this iteration     100.00

 eigenvalues of (default mixing * dielectric matrix)
  average eigenvalue GAMMA=   1.5976
  1.4237  1.7714

[...]

----------------------------------------- Iteration    3(   4)  ---------------------------------------

 BZINTS: Fermi energy: 19.869752; 16.000000 electrons
         Band energy: 112.149692;  BLOECHL correction: -0.097962

 eigenvalue-minimisations  : 11788
 total energy-change (2. order) :-0.9671260E-06  (-0.4289538E-06)
 number of electron      16.0000000 magnetization
 augmentation part        0.4035989 magnetization

 Free energy of the ion-electron system (eV)
  alpha Z        PSCENC =        93.32718035
  Ewald energy   TEWEN  =      -840.43775741
  -Hartree energ DENC   =       -26.17727106
  -exchange      EXHF   =         0.00000000
  -V(xc)+E(xc)   XCENC  =        65.20685849
  PAW double counting   =       354.94322865     -360.50658992
  entropy T*S    EENTRO =         0.00000000
  eigenvalues    EBANDS =       112.14969226
  atomic energy  EATOM  =       588.60115103
  free energy    TOTEN  =       -12.89350759 eV

  energy without entropy =      -12.89350759  energy(sigma->0) =      -12.89350759

 average (electrostatic) potential at core
  the test charge radii are     0.6991
  (the norm of the test charge is              1.0000)
       1 -38.7637       2 -38.7637       3 -37.7569       4 -37.7569

 E-fermi :  19.8698     XC(G=0): -16.1449     alpha+bet :-28.7466

[...]

 k-point   455 :       0.5000    0.5000    0.5000
  band No.  band energies     occupation
      1      -2.0101      2.00000
      2      -2.0101      2.00000
      3       0.5928      2.00000
      4       0.5928      2.00000
      5       8.6934      2.00000
      6       8.6934      2.00000
      7      16.4613      2.00000
      8      16.4613      2.00000
      9      24.8341      0.00000
     10      24.8341      0.00000
     11      32.9513      0.00000
     12      32.9513      0.00000

 soft charge-density along one line, spin component           1
         0         1         2         3         4         5         6         7         8         9
 total charge-density along one line

------------------------ aborting loop because EDIFF is reached ----------------------------------------

         DFTD3 V3.0 Rev 1
 Edisp (eV)   -1.25012

 E6    (eV) :    -0.8899
 E8    (eV) :    -0.3602
 % E8        : 28.82

  FORCE on cell =-STRESS in cart. coord.  units (eV):
  Direction    XX          YY          ZZ          XY          YZ          ZX
  Alpha Z    93.32718    93.32718    93.32718
  Ewald    -288.12652  -288.05108  -264.26130     0.06534     0.00000     0.00000
  Hartree     6.30038     6.24997    13.62699    -0.04365    -0.00000    -0.00000
  E(xc)     -65.57105   -65.57087   -65.60767     0.00016    -0.00000     0.00000
  Local       6.41645     6.42702    -9.81000     0.00916    -0.00000    -0.00000
  n-local    -9.28501   -13.24358   -15.27798     1.15413    -0.55536     0.88034
  augment    -1.73058    -1.73103    -1.90693    -0.00039    -0.00000     0.00000
  Kinetic   272.22704   314.42559   321.15682   -12.23981     5.83359    -7.52496
  Fock        0.00000     0.00000     0.00000     0.00000     0.00000     0.00000
  vdW        -1.26292    -1.26286    -1.26773     0.00005    -0.00000    -0.00000
  Total      31.43522    31.43011    69.97938    -0.00442    -0.00000     0.00000
  in kB    3605.48186  3604.89660  8026.32846    -0.50685    -0.00000     0.00000

 VOLUME and BASIS-vectors are now :
  energy-cutoff  :      600.00
  volume of cell :       13.97
      direct lattice vectors                 reciprocal lattice vectors
     2.466437249 -0.000959643  0.000000000     0.405534294  0.234345762  0.000000000
    -1.234049700  2.135517493  0.000000000     0.000182236  0.468375882  0.000000000
     0.000000000  0.000000000  2.652700291     0.000000000  0.000000000  0.376974362

  length of vectors
     2.466437436  2.466437436  2.652700291     0.468375917  0.468375917  0.376974362

 FORCES acting on ions
    electron-ion (+dipol)            ewald-force                    non-local-force                 convergence-correction
   0.160E+00 -.926E-01 0.156E-12   -.155E+00 0.897E-01 -.644E-14   -.702E-02 0.406E-02 -.139E-16   -.601E-03 0.347E-03 0.181E-13
   -.160E+00 0.926E-01 -.999E-13   0.155E+00 -.897E-01 0.752E-14   0.702E-02 -.406E-02 0.416E-16   0.601E-03 -.347E-03 -.191E-13
   -.361E-01 0.209E-01 -.101E-12   0.460E-01 -.265E-01 -.477E-14   0.912E-02 -.527E-02 0.139E-16   0.381E-03 -.220E-03 0.278E-13
   0.361E-01 -.208E-01 0.424E-12   -.459E-01 0.265E-01 0.411E-14   -.912E-02 0.527E-02 -.139E-16   -.381E-03 0.220E-03 -.382E-13
   -.125E-04 -.217E-04 0.378E-12   -.124E-14 -.611E-15 0.416E-15   -.694E-16 0.555E-16 0.278E-16   -.309E-09 -.535E-09 -.114E-13

 POSITION                                       TOTAL-FORCE (eV/Angst)
      2.46380      0.00056      0.66318        -0.002540      0.001466      0.000000
     -1.23142      2.13400      1.98953         0.002540     -0.001466     -0.000000
     -0.00246      1.42446      0.66318         0.019322     -0.011155     -0.000000
      1.23485      0.71010      1.98953        -0.019322      0.011155      0.000000
    total drift:                               -0.000013     -0.000022      0.000000

  FREE ENERGIE OF THE ION-ELECTRON SYSTEM (eV)
  free  energy   TOTEN  =       -14.14363057 eV

  energy  without entropy=      -14.14363057  energy(sigma->0) =      -14.14363057

 d Force = 0.2331017E-03[-0.118E-03, 0.584E-03]  d Energy = 0.3316201E-03-0.985E-04
 d Force = 0.1915795E-02[-0.501E-03, 0.433E-02]  d Ewald  = 0.1917917E-02-0.212E-05

 reached required accuracy - stopping structural energy minimisation
 BZINTS: Fermi energy: 19.869752; 16.000000 electrons
         Band energy: 112.149692;  BLOECHL correction: -0.097962