 vasp.5.3.5 31Mar14 (build Nov 02 2014 15:17:37) complex

 executed on        ion-Intel-MKL date 2016.08.14  08:48:53

 INCAR:
 POTCAR:   PAW_PBE C 08Apr2002
 POTCAR:   PAW_PBE C 08Apr2002
   VRHFIN =C: s2p2

   TITEL  = PAW_PBE C 08Apr2002
   POMASS =   12.011; ZVAL   =    4.000    mass and valenz
   ENMAX  =  400.000; ENMIN  =  300.000 eV
   QCUT   =   -5.516; QGAM   =   11.032    optimization parameters

   Description
     l     E      TYP  RCUT    TYP  RCUT
     0   .000     23  1.200
     0   .000     23  1.200
     1   .000     23  1.500
     1  2.500     23  1.500
     2   .000      7  1.500

 PAW_PBE C 08Apr2002                    :

 POSCAR: CIF file
  positions in direct lattice
  velocities in cartesian coordinates
 exchange correlation table for  LEXCH =        8
   RHO(1)=    0.500       N(1)  =     2000
   RHO(2)=  100.500       N(2)  =     4000

 ion  position               nearest neighbor table
   1  1.000  0.000  0.250-   3 1.42   3 1.43   3 1.43
   2  0.000  1.000  0.750-   4 1.42   4 1.43   4 1.43
   3  0.333  0.667  0.250-   1 1.42   1 1.43   1 1.43
   4  0.667  0.333  0.750-   2 1.42   2 1.43   2 1.43

  LATTYP: Found a base centered orthorhombic cell.
 ALAT       =     2.4712325073
 B/A-ratio  =     1.7272928269
 C/A-ratio  =     3.2544414588

  Lattice vectors:

 A1 = (   2.4661411109,   0.0029395191,   0.0000000000)
 A2 = (  -1.2305248572,   2.1372106108,   0.0000000000)
 A3 = (   0.0000000000,   0.0000000000,   8.0424815260)

Analysis of symmetry for initial positions (statically):
 Subroutine PRICEL returns:
 Original cell was already a primitive cell.

 Routine SETGRP: Setting up the symmetry group for a
 base centered orthorhombic supercell.

 Subroutine GETGRP returns: Found  8 space group operations
 (whereof  4 operations were pure point group operations)
 out of a pool of  8 trial point group operations.

The static configuration has the point symmetry C_2h.
 The point group associated with its full space group is D_2h.

Analysis of symmetry for dynamics (positions and initial velocities):
 Subroutine PRICEL returns:
 Original cell was already a primitive cell.

 Routine SETGRP: Setting up the symmetry group for a
 base centered orthorhombic supercell.

 Subroutine GETGRP returns: Found  8 space group operations
 (whereof  4 operations were pure point group operations)
 out of a pool of  8 trial point group operations.

The dynamic configuration has the point symmetry C_2h.
 The point group associated with its full space group is D_2h.

 KPOINTS: B4C B11C-CBC

Automatic generation of k-mesh.
Space group operators:
 irot       det(A)        alpha          n_x          n_y          n_z        tau_x        tau_y        tau_z
    1     1.000000     0.000000     1.000000     0.000000     0.000000     0.000000     0.000000     0.000000
    2    -1.000000     0.000000     1.000000     0.000000     0.000000     0.000000     0.000000     0.000000
    3     1.000000   180.000000    -0.500000    -0.866025     0.000000     0.000000     0.000000     0.000000
    4    -1.000000   180.000000    -0.500000    -0.866025     0.000000     0.000000     0.000000     0.000000
    5     1.000000   180.000000     0.000000     0.000000     1.000000     0.000000     0.000000     0.500000
    6    -1.000000   180.000000     0.000000     0.000000     1.000000     0.000000     0.000000     0.500000
    7     1.000000   180.000000     0.866025    -0.500000     0.000000     0.000000     0.000000     0.500000
    8    -1.000000   180.000000     0.866025    -0.500000     0.000000     0.000000     0.000000     0.500000

 Subroutine IBZKPT returns following result:

 Found    455 irreducible k-points:

 Following reciprocal coordinates:
            Coordinates               Weight
  0.000000  0.000000  0.000000      1.000000
  0.055556  0.000000  0.000000      4.000000
  0.111111  0.000000  0.000000      4.000000
  0.166667  0.000000  0.000000      4.000000
  0.222222 -0.000000  0.000000      4.000000
  0.277778  0.000000  0.000000      4.000000
  0.333333  0.000000  0.000000      4.000000
  0.388889  0.000000  0.000000      4.000000
  0.444444 -0.000000  0.000000      4.000000
  0.500000  0.000000  0.000000      2.000000
  0.055556  0.055556  0.000000      2.000000
  0.111111  0.055556  0.000000      4.000000
  0.166667  0.055556  0.000000      4.000000
  0.222222  0.055556  0.000000      4.000000
  0.277778  0.055556  0.000000      4.000000
  0.333333  0.055556  0.000000      4.000000
  0.388889  0.055556  0.000000      4.000000
  0.444444  0.055556  0.000000      4.000000
  0.500000  0.055556  0.000000      4.000000
 -0.444444  0.055556  0.000000      4.000000
 -0.388889  0.055556  0.000000      4.000000
 -0.333333  0.055556  0.000000      4.000000
 -0.277778  0.055556  0.000000      4.000000
 -0.222222  0.055556  0.000000      4.000000
 -0.166667  0.055556  0.000000      4.000000
 -0.111111  0.055556  0.000000      4.000000
 -0.055556  0.055556  0.000000      2.000000
  0.111111  0.111111  0.000000      2.000000
  0.166667  0.111111  0.000000      4.000000
  0.222222  0.111111  0.000000      4.000000
  0.277778  0.111111  0.000000      4.000000
  0.333333  0.111111  0.000000      4.000000
  0.388889  0.111111  0.000000      4.000000
  0.444444  0.111111  0.000000      4.000000
  0.500000  0.111111  0.000000      4.000000
 -0.444444  0.111111  0.000000      4.000000
 -0.388889  0.111111  0.000000      4.000000
 -0.333333  0.111111  0.000000      4.000000
 -0.277778  0.111111  0.000000      4.000000
 -0.222222  0.111111  0.000000      4.000000
 -0.166667  0.111111  0.000000      4.000000
 -0.111111  0.111111  0.000000      2.000000
  0.166667  0.166667  0.000000      2.000000
  0.222222  0.166667  0.000000      4.000000
  0.277778  0.166667  0.000000      4.000000
  0.333333  0.166667  0.000000      4.000000
  0.388889  0.166667  0.000000      4.000000
  0.444444  0.166667  0.000000      4.000000
  0.500000  0.166667  0.000000      4.000000
 -0.444444  0.166667  0.000000      4.000000
 -0.388889  0.166667  0.000000      4.000000
 -0.333333  0.166667  0.000000      4.000000
 -0.277778  0.166667  0.000000      4.000000
 -0.222222  0.166667  0.000000      4.000000
 -0.166667  0.166667  0.000000      2.000000
  0.222222  0.222222  0.000000      2.000000
  0.277778  0.222222  0.000000      4.000000
  0.333333  0.222222  0.000000      4.000000
  0.388889  0.222222  0.000000      4.000000
  0.444444  0.222222  0.000000      4.000000
[...]
  0.388889  0.333333  0.500000      4.000000
  0.444444  0.333333  0.500000      4.000000
  0.500000  0.333333  0.500000      4.000000
 -0.444444  0.333333  0.500000      4.000000
 -0.388889  0.333333  0.500000      4.000000
 -0.333333  0.333333  0.500000      2.000000
  0.388889  0.388889  0.500000      2.000000
  0.444444  0.388889  0.500000      4.000000
  0.500000  0.388889  0.500000      4.000000
 -0.444444  0.388889  0.500000      4.000000
 -0.388889  0.388889  0.500000      2.000000
  0.444444  0.444444  0.500000      2.000000
  0.500000  0.444444  0.500000      4.000000
 -0.444444  0.444444  0.500000      2.000000
  0.500000  0.500000  0.500000      1.000000

 Following cartesian coordinates:
            Coordinates               Weight
  0.000000  0.000000  0.000000      1.000000
  0.022512  0.012961  0.000000      4.000000
  0.045024  0.025923  0.000000      4.000000
  0.067536  0.038884  0.000000      4.000000
  0.090047  0.051846  0.000000      4.000000
  0.112559  0.064807  0.000000      4.000000
  0.135071  0.077769  0.000000      4.000000
  0.157583  0.090730  0.000000      4.000000
  0.180095  0.103692  0.000000      4.000000
  0.202607  0.116653  0.000000      2.000000
  0.022481  0.038938  0.000000      2.000000
  0.044993  0.051900  0.000000      4.000000
  0.067505  0.064861  0.000000      4.000000
  0.090017  0.077823  0.000000      4.000000
  0.112528  0.090784  0.000000      4.000000
  0.135040  0.103745  0.000000      4.000000
  0.157552  0.116707  0.000000      4.000000
  0.180064  0.129668  0.000000      4.000000
  0.202576  0.142630  0.000000      4.000000
 -0.180126 -0.077715  0.000000      4.000000
 -0.157614 -0.064754  0.000000      4.000000
 -0.135102 -0.051792  0.000000      4.000000
 -0.112590 -0.038831  0.000000      4.000000
 -0.090078 -0.025869  0.000000      4.000000
 -0.067567 -0.012908  0.000000      4.000000
 -0.045055  0.000054  0.000000      4.000000
 -0.022543  0.013015  0.000000      2.000000
  0.044962  0.077876  0.000000      2.000000
  0.067474  0.090838  0.000000      4.000000
  0.089986  0.103799  0.000000      4.000000
  0.112497  0.116761  0.000000      4.000000
  0.135009  0.129722  0.000000      4.000000
  0.157521  0.142684  0.000000      4.000000
  0.180033  0.155645  0.000000      4.000000
  0.202545  0.168607  0.000000      4.000000
 -0.180157 -0.051739  0.000000      4.000000
 -0.157645 -0.038777  0.000000      4.000000
 -0.135133 -0.025816  0.000000      4.000000
 -0.112621 -0.012854  0.000000      4.000000
 -0.090109  0.000107  0.000000      4.000000
 -0.067598  0.013069  0.000000      4.000000
 -0.045086  0.026030  0.000000      2.000000
  0.067443  0.116814  0.000000      2.000000
  0.089955  0.129776  0.000000      4.000000
  0.112466  0.142737  0.000000      4.000000
  0.134978  0.155699  0.000000      4.000000
  0.157490  0.168660  0.000000      4.000000
  0.180002  0.181622  0.000000      4.000000
  0.202514  0.194583  0.000000      4.000000
 -0.180188 -0.025762  0.000000      4.000000
 -0.157676 -0.012801  0.000000      4.000000
 -0.135164  0.000161  0.000000      4.000000
 -0.112652  0.013122  0.000000      4.000000
 -0.090140  0.026084  0.000000      4.000000
 -0.067629  0.039045  0.000000      2.000000
  0.089924  0.155752  0.000000      2.000000
  0.112436  0.168714  0.000000      4.000000
  0.134947  0.181675  0.000000      4.000000
  0.157459  0.194637  0.000000      4.000000
  0.179971  0.207598  0.000000      4.000000
[...]
  0.157397  0.246590  0.062170      4.000000
  0.179909  0.259551  0.062170      4.000000
  0.202421  0.272513  0.062170      4.000000
 -0.180281  0.052168  0.062170      4.000000
 -0.157769  0.065129  0.062170      4.000000
 -0.135257  0.078091  0.062170      2.000000
  0.157366  0.272567  0.062170      2.000000
  0.179878  0.285528  0.062170      4.000000
  0.202390  0.298490  0.062170      4.000000
 -0.180312  0.078144  0.062170      4.000000
 -0.157800  0.091106  0.062170      2.000000
  0.179847  0.311505  0.062170      2.000000
  0.202359  0.324466  0.062170      4.000000
 -0.180343  0.104121  0.062170      2.000000
  0.202328  0.350443  0.062170      1.000000

 TETIRR: Found   3888 inequivalent tetrahedra from    15552

 I would recommend the setting:
   dimension x,y,z NGX =    20 NGY =   20 NGZ =   64
 SYSTEM =  graphite
 POSCAR =  CIF file

 Startparameter for this run:
   NWRITE =      2    write-flag & timer
   PREC   = accura    normal or accurate (medium, high low for compatibility)
   ISTART =      0    job   : 0-new  1-cont  2-samecut
   ICHARG =      2    charge: 1-file 2-atom 10-const
   ISPIN  =      1    spin polarized calculation?
   LNONCOLLINEAR =      F non collinear calculations
   LSORBIT =      F    spin-orbit coupling
[...]
 k-point ** :   0.2222 0.1111 0.1250  plane waves:    1404
 k-point ** :   0.2778 0.1111 0.1250  plane waves:    1414
 k-point ** :   0.3333 0.1111 0.1250  plane waves:    1421
 k-point ** :   0.3889 0.1111 0.1250  plane waves:    1421
 k-point ** :   0.4444 0.1111 0.1250  plane waves:    1420
 k-point ** :   0.5000 0.1111 0.1250  plane waves:    1419
 k-point ** :  -0.4444 0.1111 0.1250  plane waves:    1418
 k-point ** :  -0.3889 0.1111 0.1250  plane waves:    1411
 k-point ** :  -0.3333 0.1111 0.1250  plane waves:    1405
 k-point ** :  -0.2778 0.1111 0.1250  plane waves:    1406
 k-point ** :  -0.2222 0.1111 0.1250  plane waves:    1401
 k-point ** :  -0.1667 0.1111 0.1250  plane waves:    1398
 k-point ** :  -0.1111 0.1111 0.1250  plane waves:    1390
 k-point ** :   0.1667 0.1667 0.1250  plane waves:    1411
 k-point ** :   0.2222 0.1667 0.1250  plane waves:    1410
 k-point ** :   0.2778 0.1667 0.1250  plane waves:    1422
 k-point ** :   0.3333 0.1667 0.1250  plane waves:    1425
 k-point ** :   0.3889 0.1667 0.1250  plane waves:    1425
 k-point ** :   0.4444 0.1667 0.1250  plane waves:    1424
 k-point ** :   0.5000 0.1667 0.1250  plane waves:    1425
 k-point ** :  -0.4444 0.1667 0.1250  plane waves:    1418
 k-point ** :  -0.3889 0.1667 0.1250  plane waves:    1414
 k-point ** :  -0.3333 0.1667 0.1250  plane waves:    1409
 k-point ** :  -0.2778 0.1667 0.1250  plane waves:    1407
 k-point ** :  -0.2222 0.1667 0.1250  plane waves:    1409
 k-point ** :  -0.1667 0.1667 0.1250  plane waves:    1402
 k-point ** :   0.2222 0.2222 0.1250  plane waves:    1426
 k-point ** :   0.2778 0.2222 0.1250  plane waves:    1432
 k-point ** :   0.3333 0.2222 0.1250  plane waves:    1426
 k-point ** :   0.3889 0.2222 0.1250  plane waves:    1436
 k-point ** :   0.4444 0.2222 0.1250  plane waves:    1429
 k-point ** :   0.5000 0.2222 0.1250  plane waves:    1433
 k-point ** :  -0.4444 0.2222 0.1250  plane waves:    1424
 k-point ** :  -0.3889 0.2222 0.1250  plane waves:    1415
 k-point ** :  -0.3333 0.2222 0.1250  plane waves:    1402
 k-point ** :  -0.2778 0.2222 0.1250  plane waves:    1406
 k-point ** :  -0.2222 0.2222 0.1250  plane waves:    1412
 k-point ** :   0.2778 0.2778 0.1250  plane waves:    1438
 k-point ** :   0.3333 0.2778 0.1250  plane waves:    1438
[...]
 k-point ** :   0.3889 0.3333 0.5000  plane waves:    1440
 k-point ** :   0.4444 0.3333 0.5000  plane waves:    1432
 k-point ** :   0.5000 0.3333 0.5000  plane waves:    1426
 k-point ** :  -0.4444 0.3333 0.5000  plane waves:    1418
 k-point ** :  -0.3889 0.3333 0.5000  plane waves:    1414
 k-point ** :  -0.3333 0.3333 0.5000  plane waves:    1412
 k-point ** :   0.3889 0.3889 0.5000  plane waves:    1438
 k-point ** :   0.4444 0.3889 0.5000  plane waves:    1430
 k-point ** :   0.5000 0.3889 0.5000  plane waves:    1426
 k-point ** :  -0.4444 0.3889 0.5000  plane waves:    1422
 k-point ** :  -0.3889 0.3889 0.5000  plane waves:    1426
 k-point ** :   0.4444 0.4444 0.5000  plane waves:    1422
 k-point ** :   0.5000 0.4444 0.5000  plane waves:    1414
 k-point ** :  -0.4444 0.4444 0.5000  plane waves:    1412
 k-point ** :   0.5000 0.5000 0.5000  plane waves:    1408

 maximum and minimum number of plane-waves per node :       495      441

 maximum number of plane-waves:      1448
 maximum index in each direction:
   IXMAX=    5   IYMAX=    4   IZMAX=   16
   IXMIN=   -5   IYMIN=   -5   IZMIN=  -16

 WARNING: aliasing errors must be expected set NGX to  22 to avoid them
 NGY is ok and might be reduce to  20
 WARNING: aliasing errors must be expected set NGZ to  66 to avoid them
 aliasing errors are usually negligible using standard VASP settings
 and one can safely disregard these warnings

 parallel 3D FFT for wavefunctions:
    minimum data exchange during FFTs selected (reduces bandwidth)
 parallel 3D FFT for charge:
    minimum data exchange during FFTs selected (reduces bandwidth)

 Broyden mixing: mesh for mixing (old mesh)
   NGX =  9   NGY =  9   NGZ = 33
  (NGX  = 40   NGY  = 40   NGZ  =128)
  gives a total of   2673 points

 initial charge density was supplied:
 charge density of overlapping atoms calculated
 number of electron      16.0000000 magnetization
 keeping initial charge density in first step

 Maximum index for augmentation-charges         1299 (set IRDMAX)

 First call to EWALD:  gamma=   0.508
 Maximum number of real-space cells 4x 4x 1
 Maximum number of reciprocal cells 2x 2x 6

 FEWALD executed in parallel

----------------------------------------- Iteration    1(   1)  ---------------------------------------

 BZINTS: Fermi energy: 12.722441; 16.000000 electrons
         Band energy: -28.669989;  BLOECHL correction: -0.319725

 eigenvalue-minimisations  : 10944
 total energy-change (2. order) : 0.6819851E+02  (-0.8737546E+03)
 number of electron      16.0000000 magnetization
 augmentation part       16.0000000 magnetization

 Free energy of the ion-electron system (eV)
  alpha Z        PSCENC =        30.73396660
  Ewald energy   TEWEN  =      -338.88786612
  -Hartree energ DENC   =      -234.14204368
  -exchange      EXHF   =         0.00000000
  -V(xc)+E(xc)   XCENC  =        55.16521318
  PAW double counting   =       151.32577238     -155.92769107
  entropy T*S    EENTRO =         0.00000000
  eigenvalues    EBANDS =       -28.66998897
  atomic energy  EATOM  =       588.60115103
  free energy    TOTEN  =        68.19851336 eV

  energy without entropy =       68.19851336  energy(sigma->0) =       68.19851336

[...]

 BZINTS: Fermi energy:  2.041684; 16.000000 electrons
         Band energy:-130.803941;  BLOECHL correction: -0.000114

 eigenvalue-minimisations  : 15844
 total energy-change (2. order) :-0.1021340E+03  (-0.9343684E+02)
 number of electron      16.0000000 magnetization
 augmentation part       16.0000000 magnetization

[...]

 Broyden mixing:
  rms(total) = 0.77917E+00    rms(broyden)= 0.77908E+00
  rms(prec ) = 0.11409E+01
  weight for this iteration     100.00

[...]

 BZINTS: Fermi energy:  2.242304; 16.000000 electrons
         Band energy:-116.501753;  BLOECHL correction:  0.000000

[...]

 eigenvalues of (default mixing * dielectric matrix)
  average eigenvalue GAMMA=   2.0363
  2.0363

[...]

 average (electrostatic) potential at core
  the test charge radii are     0.6991
  (the norm of the test charge is              1.0000)
       1 -52.2197       2 -52.2197       3 -52.2160       4 -52.2160

 E-fermi :   3.2091     XC(G=0):  -9.0776     alpha+bet : -9.4667

 k-point     1 :       0.0000    0.0000    0.0000
  band No.  band energies     occupation
      1     -16.3110      2.00000
      2     -16.2476      2.00000
      3      -4.7264      2.00000
      4      -4.0215      2.00000
      5       0.1584      2.00000
      6       0.1607      2.00000
      7       0.2131      2.00000
      8       0.2155      2.00000
      9       6.4953      0.00000
     10      10.3737      0.00000
     11      11.4466      0.00000
     12      11.4558      0.00000

[...]

 soft charge-density along one line, spin component           1
         0         1         2         3         4         5         6         7         8         9
 total charge-density along one line

------------------------ aborting loop because EDIFF is reached ----------------------------------------

  FORCE on cell =-STRESS in cart. coord.  units (eV):
  Direction    XX          YY          ZZ          XY          YZ          ZX
  Alpha Z    30.73397    30.73397    30.73397
  Ewald     199.16317   197.80024  -735.85168    -1.18033    -0.00000     0.00000
  Hartree   252.56739   252.34170  -229.80205    -0.19546    -0.00000    -0.00000
  E(xc)     -58.33714   -58.34074   -60.65101    -0.00311    -0.00000     0.00000
  Local    -648.44536  -647.10212   735.03521     1.16327     0.00000     0.00000
  n-local   -14.43572   -13.64422   -12.78490    -0.19100     0.00208    -0.00199
  augment    -1.54265    -1.54066    -1.41401     0.00173    -0.00000    -0.00000
  Kinetic   243.71455   236.19274   274.72406     2.11765    -0.03234     0.03028
  Fock        0.00000     0.00000     0.00000     0.00000     0.00000     0.00000
  Total       0.06005    -0.20095    -0.01041    -0.22603    -0.00000     0.00000
  in kB       2.26802    -7.58989    -0.39331    -8.53720    -0.00000     0.00000

 VOLUME and BASIS-vectors are now :
  energy-cutoff  :      600.00
  volume of cell :       42.42
      direct lattice vectors                 reciprocal lattice vectors
     2.466141111  0.002939519  0.000000000     0.405213711  0.233306695  0.000000000
    -1.230524857  2.137210611  0.000000000    -0.000557331  0.467578715  0.000000000
     0.000000000  0.000000000  8.042481526     0.000000000  0.000000000  0.124339732

[...]

 FORCES acting on ions
    electron-ion (+dipol)            ewald-force                    non-local-force                 convergence-correction
   0.807E+00 -.466E+00 -.126E-11   -.873E+00 0.504E+00 -.199E-13   -.370E-01 0.214E-01 -.271E-19   -.395E-04 0.228E-04 -.109E-12
   -.807E+00 0.466E+00 -.217E-13   0.872E+00 -.504E+00 0.199E-13   0.370E-01 -.214E-01 0.271E-19   0.395E-04 -.228E-04 0.137E-12
   -.808E+00 0.467E+00 0.682E-12   0.873E+00 -.504E+00 -.199E-13   0.367E-01 -.212E-01 -.542E-19   0.383E-04 -.221E-04 -.111E-12
   0.808E+00 -.467E+00 -.160E-11   -.873E+00 0.504E+00 0.199E-13   -.367E-01 0.212E-01 0.542E-19   -.383E-04 0.221E-04 0.135E-12
   -.683E-05 -.118E-04 -.220E-11   0.477E-14 0.101E-13 0.000E+00   0.000E+00 -.555E-16 0.000E+00   -.124E-10 -.214E-10 0.522E-13

 POSITION                                       TOTAL-FORCE (eV/Angst)
      2.46547      0.00333      2.01062        -0.102423      0.059134      0.000000
     -1.22985      2.13682      6.03186         0.102423     -0.059134      0.000000
     -0.00094      1.42731      2.01062         0.101414     -0.058551     -0.000000
      1.23655      0.71284      6.03186        -0.101414      0.058551     -0.000000
    total drift:                               -0.000007     -0.000012     -0.000000

  FREE ENERGIE OF THE ION-ELECTRON SYSTEM (eV)
  free  energy   TOTEN  =       -36.89131597 eV

  energy  without entropy=      -36.89131597  energy(sigma->0) =      -36.89131597

[...]

 d Force =-0.3355118E-02[-0.938E-02, 0.267E-02]  d Energy =-0.3318307E-02-0.368E-04
 d Force = 0.2228889E-03[-0.224E-01, 0.229E-01]  d Ewald  = 0.7636476E-04 0.147E-03

 Steepest descent step on ions:
 trial-energy change:    0.003318  1 .order    0.003355   -0.002673    0.009383
  (g-gl).g = 0.267E-02      g.g   = 0.267E-02  gl.gl    = 0.000E+00
 g(Force)  = 0.267E-02   g(Stress)= 0.000E+00 ortho     = 0.000E+00
 gamma     =   0.00000
 trial     =   1.00000
 opt step  =   0.22489  (harmonic =   0.22170) maximal distance =0.00111121
 next E    =   -36.891617   (d E  =  -0.00030)

 FEWALD executed in parallel

[...]

 eigenvalue-minimisations  : 13312
 total energy-change (2. order) : 0.2613767E-05  (-0.8075771E-05)
 number of electron      16.0000001 magnetization
 augmentation part        0.3827054 magnetization

 Broyden mixing:
  rms(total) = 0.42917E-03    rms(broyden)= 0.42914E-03
  rms(prec ) = 0.50553E-03
  weight for this iteration     100.00

 eigenvalues of (default mixing * dielectric matrix)
  average eigenvalue GAMMA=   1.7668
  2.4471  1.2219  1.6315

[...]

----------------------------------------- Iteration    3(   5)  ---------------------------------------

 BZINTS: Fermi energy:  3.210104; 16.000000 electrons
         Band energy: -94.589975;  BLOECHL correction:  0.000000

 eigenvalue-minimisations  : 11972
 total energy-change (2. order) :-0.2278352E-06  (-0.1993318E-06)
 number of electron      16.0000001 magnetization
 augmentation part        0.3827054 magnetization

 Free energy of the ion-electron system (eV)
  alpha Z        PSCENC =        30.73396660
  Ewald energy   TEWEN  =      -338.89184744
  -Hartree energ DENC   =      -275.10357496
  -exchange      EXHF   =         0.00000000
  -V(xc)+E(xc)   XCENC  =        57.52047864
  PAW double counting   =       277.03417095     -282.19596241
  entropy T*S    EENTRO =         0.00000000
  eigenvalues    EBANDS =       -94.58997460
  atomic energy  EATOM  =       588.60115103
  free energy    TOTEN  =       -36.89159219 eV

  energy without entropy =      -36.89159219  energy(sigma->0) =      -36.89159219

 average (electrostatic) potential at core
  the test charge radii are     0.6991
  (the norm of the test charge is              1.0000)
       1 -52.2197       2 -52.2197       3 -52.2162       4 -52.2162

 E-fermi :   3.2101     XC(G=0):  -9.0776     alpha+bet : -9.4667

[...]

 k-point   455 :       0.5000    0.5000    0.5000
  band No.  band energies     occupation
      1     -11.0211      2.00000
      2     -11.0211      2.00000
      3      -9.9991      2.00000
      4      -9.9991      2.00000
      5      -3.2156      2.00000
      6      -3.2156      2.00000
      7       0.8778      2.00000
      8       0.8778      2.00000
      9       4.8815      0.00000
     10       4.8815      0.00000
     11      10.5022      0.00000
     12      10.5022      0.00000

 soft charge-density along one line, spin component           1
         0         1         2         3         4         5         6         7         8         9
 total charge-density along one line

------------------------ aborting loop because EDIFF is reached ----------------------------------------

  FORCE on cell =-STRESS in cart. coord.  units (eV):
  Direction    XX          YY          ZZ          XY          YZ          ZX
  Alpha Z    30.73397    30.73397    30.73397
  Ewald     198.60240   198.35703  -735.85168    -0.21249     0.00000    -0.00000
  Hartree   252.48811   252.41796  -229.80230    -0.06075    -0.00000    -0.00000
  E(xc)     -58.33904   -58.33833   -60.65075     0.00062     0.00000    -0.00000
  Local    -647.91231  -647.63097   735.03654     0.24365    -0.00000    -0.00000
  n-local   -14.43590   -13.64378   -12.78455    -0.18182     0.00209    -0.00197
  augment    -1.54172    -1.54148    -1.41398     0.00021     0.00000     0.00000
  Kinetic   243.75577   236.14904   274.72192     1.92726    -0.03270     0.02993
  Fock        0.00000     0.00000     0.00000     0.00000     0.00000     0.00000
  Total       0.04001    -0.18527    -0.01084    -0.19510     0.00000     0.00000
  in kB       1.51118    -6.99776    -0.40956    -7.36896     0.00000     0.00000

 VOLUME and BASIS-vectors are now :
  energy-cutoff  :      600.00
  volume of cell :       42.42
      direct lattice vectors                 reciprocal lattice vectors
     2.466141111  0.002939519  0.000000000     0.405213711  0.233306695  0.000000000
    -1.230524857  2.137210611  0.000000000    -0.000557331  0.467578715  0.000000000
     0.000000000  0.000000000  8.042481526     0.000000000  0.000000000  0.124339732

  length of vectors
     2.466142863  2.466142863  8.042481526     0.467579047  0.467579047  0.124339732

 FORCES acting on ions
    electron-ion (+dipol)            ewald-force                    non-local-force                 convergence-correction
   0.482E+00 -.278E+00 -.465E-12   -.478E+00 0.276E+00 -.199E-13   0.184E-02 -.106E-02 -.542E-19   0.762E-03 -.440E-03 -.152E-12
   -.482E+00 0.278E+00 -.300E-13   0.478E+00 -.276E+00 0.199E-13   -.184E-02 0.106E-02 0.108E-18   -.762E-03 0.440E-03 0.451E-13
   -.483E+00 0.279E+00 0.625E-12   0.478E+00 -.276E+00 -.199E-13   -.215E-02 0.124E-02 0.813E-19   -.760E-03 0.439E-03 -.154E-12
   0.483E+00 -.279E+00 0.280E-11   -.478E+00 0.276E+00 0.199E-13   0.215E-02 -.124E-02 0.813E-19   0.760E-03 -.439E-03 0.413E-13
   -.679E-05 -.118E-04 0.293E-11   0.472E-14 0.999E-14 0.000E+00   -.111E-15 0.555E-16 0.217E-18   0.108E-09 0.188E-09 -.219E-12

 POSITION                                       TOTAL-FORCE (eV/Angst)
      2.46436      0.00397      2.01062         0.006611     -0.003817     -0.000000
     -1.22874      2.13618      6.03186        -0.006611      0.003817      0.000000
      0.00016      1.42667      2.01062        -0.007676      0.004432      0.000000
      1.23545      0.71348      6.03186         0.007676     -0.004432     -0.000000
    total drift:                               -0.000007     -0.000012      0.000000

  FREE ENERGIE OF THE ION-ELECTRON SYSTEM (eV)
  free  energy   TOTEN  =       -36.89159219 eV

  energy  without entropy=      -36.89159219  energy(sigma->0) =      -36.89159219

 d Force = 0.3708967E-02[ 0.145E-03, 0.727E-02]  d Energy = 0.3594529E-02 0.114E-03
 d Force = 0.3836782E-02[-0.972E-02, 0.174E-01]  d Ewald  = 0.3904955E-02-0.682E-04

 reached required accuracy - stopping structural energy minimisation
 BZINTS: Fermi energy:  3.210104; 16.000000 electrons
         Band energy: -94.589975;  BLOECHL correction:  0.000000