 vasp.5.3.5 31Mar14 (build Nov 02 2014 15:17:37) complex

 executed on        ion-Intel-MKL date 2016.08.12  22:13:18

 INCAR:
 POTCAR:   PAW_PBE C 08Apr2002
 POTCAR:   PAW_PBE C 08Apr2002
   VRHFIN =C: s2p2

   TITEL  = PAW_PBE C 08Apr2002
   POMASS =   12.011; ZVAL   =    4.000    mass and valenz
   ENMAX  =  400.000; ENMIN  =  300.000 eV
   QCUT   =   -5.516; QGAM   =   11.032    optimization parameters

   Description
     l     E      TYP  RCUT    TYP  RCUT
     0   .000     23  1.200
     0   .000     23  1.200
     1   .000     23  1.500
     1  2.500     23  1.500
     2   .000      7  1.500

 PAW_PBE C 08Apr2002                    :

 POSCAR: CIF file
  positions in direct lattice
  velocities in cartesian coordinates
 exchange correlation table for  LEXCH =        8
   RHO(1)=    0.500       N(1)  =     2000
   RHO(2)=  100.500       N(2)  =     4000

 ion  position               nearest neighbor table
   1  1.000  0.000  0.250-   3 1.42   3 1.42   3 1.42
   2  0.000  1.000  0.750-   4 1.42   4 1.42   4 1.42
   3  0.333  0.667  0.250-   1 1.42   1 1.42   1 1.42
   4  0.667  0.333  0.750-   2 1.42   2 1.42   2 1.42

  LATTYP: Found a base centered orthorhombic cell.
 ALAT       =     2.4669628383
 B/A-ratio  =     1.7322311103
 C/A-ratio  =     2.0447437050

  Lattice vectors:

 A1 = (   2.4671554424,  -0.0001112000,   0.0000000000)
 A2 = (  -1.2336740232,   2.1365636881,   0.0000000000)
 A3 = (   0.0000000000,   0.0000000000,   5.0443067340)

Analysis of symmetry for initial positions (statically):
 Subroutine PRICEL returns:
 Original cell was already a primitive cell.

 Routine SETGRP: Setting up the symmetry group for a
 base centered orthorhombic supercell.

 Subroutine GETGRP returns: Found  8 space group operations
 (whereof  4 operations were pure point group operations)
 out of a pool of  8 trial point group operations.

The static configuration has the point symmetry C_2h.
 The point group associated with its full space group is D_2h.

Analysis of symmetry for dynamics (positions and initial velocities):
 Subroutine PRICEL returns:
 Original cell was already a primitive cell.

 Routine SETGRP: Setting up the symmetry group for a
 base centered orthorhombic supercell.

 Subroutine GETGRP returns: Found  8 space group operations
 (whereof  4 operations were pure point group operations)
 out of a pool of  8 trial point group operations.

The dynamic configuration has the point symmetry C_2h.
 The point group associated with its full space group is D_2h.

 KPOINTS: B4C B11C-CBC

Automatic generation of k-mesh.
Space group operators:
 irot       det(A)        alpha          n_x          n_y          n_z        tau_x        tau_y        tau_z
    1     1.000000     0.000000     1.000000     0.000000     0.000000     0.000000     0.000000     0.000000
    2    -1.000000     0.000000     1.000000     0.000000     0.000000     0.000000     0.000000     0.000000
    3     1.000000   180.000000    -0.500000    -0.866025     0.000000     0.000000     0.000000     0.000000
    4    -1.000000   180.000000    -0.500000    -0.866025     0.000000     0.000000     0.000000     0.000000
    5     1.000000   180.000000     0.000000     0.000000     1.000000     0.000000     0.000000     0.500000
    6    -1.000000   180.000000     0.000000     0.000000     1.000000     0.000000     0.000000     0.500000
    7     1.000000   180.000000     0.866025    -0.500000     0.000000     0.000000     0.000000     0.500000
    8    -1.000000   180.000000     0.866025    -0.500000     0.000000     0.000000     0.000000     0.500000

 Subroutine IBZKPT returns following result:

 Found    455 irreducible k-points:

 Following reciprocal coordinates:
            Coordinates               Weight
  0.000000  0.000000  0.000000      1.000000
  0.055556  0.000000  0.000000      4.000000
  0.111111  0.000000  0.000000      4.000000
  0.166667  0.000000  0.000000      4.000000
  0.222222  0.000000  0.000000      4.000000
  0.277778 -0.000000  0.000000      4.000000
  0.333333  0.000000  0.000000      4.000000
  0.388889  0.000000  0.000000      4.000000
  0.444444  0.000000  0.000000      4.000000
  0.500000  0.000000  0.000000      2.000000
  0.055556  0.055556  0.000000      2.000000
  0.111111  0.055556  0.000000      4.000000
  0.166667  0.055556  0.000000      4.000000
  0.222222  0.055556  0.000000      4.000000
  0.277778  0.055556  0.000000      4.000000
  0.333333  0.055556  0.000000      4.000000
  0.388889  0.055556  0.000000      4.000000
  0.444444  0.055556  0.000000      4.000000
  0.500000  0.055556  0.000000      4.000000
 -0.444444  0.055556  0.000000      4.000000
 -0.388889  0.055556  0.000000      4.000000
 -0.333333  0.055556  0.000000      4.000000
 -0.277778  0.055556  0.000000      4.000000
 -0.222222  0.055556  0.000000      4.000000
 -0.166667  0.055556  0.000000      4.000000
 -0.111111  0.055556  0.000000      4.000000
 -0.055556  0.055556  0.000000      2.000000
  0.111111  0.111111  0.000000      2.000000
  0.166667  0.111111  0.000000      4.000000
  0.222222  0.111111  0.000000      4.000000
  0.277778  0.111111  0.000000      4.000000
  0.333333  0.111111  0.000000      4.000000
  0.388889  0.111111  0.000000      4.000000
  0.444444  0.111111  0.000000      4.000000
  0.500000  0.111111  0.000000      4.000000
 -0.444444  0.111111  0.000000      4.000000
 -0.388889  0.111111  0.000000      4.000000
 -0.333333  0.111111  0.000000      4.000000
 -0.277778  0.111111  0.000000      4.000000
 -0.222222  0.111111  0.000000      4.000000
 -0.166667  0.111111  0.000000      4.000000
 -0.111111  0.111111  0.000000      2.000000
  0.166667  0.166667  0.000000      2.000000
  0.222222  0.166667  0.000000      4.000000
  0.277778  0.166667  0.000000      4.000000
  0.333333  0.166667  0.000000      4.000000
  0.388889  0.166667  0.000000      4.000000
  0.444444  0.166667  0.000000      4.000000
  0.500000  0.166667  0.000000      4.000000
 -0.444444  0.166667  0.000000      4.000000
 -0.388889  0.166667  0.000000      4.000000
 -0.333333  0.166667  0.000000      4.000000
 -0.277778  0.166667  0.000000      4.000000
 -0.222222  0.166667  0.000000      4.000000
 -0.166667  0.166667  0.000000      2.000000
  0.222222  0.222222  0.000000      2.000000
  0.277778  0.222222  0.000000      4.000000
  0.333333  0.222222  0.000000      4.000000
  0.388889  0.222222  0.000000      4.000000
  0.444444  0.222222  0.000000      4.000000
[...]
  0.388889  0.333333  0.500000      4.000000
  0.444444  0.333333  0.500000      4.000000
  0.500000  0.333333  0.500000      4.000000
 -0.444444  0.333333  0.500000      4.000000
 -0.388889  0.333333  0.500000      4.000000
 -0.333333  0.333333  0.500000      2.000000
  0.388889  0.388889  0.500000      2.000000
  0.444444  0.388889  0.500000      4.000000
  0.500000  0.388889  0.500000      4.000000
 -0.444444  0.388889  0.500000      4.000000
 -0.388889  0.388889  0.500000      2.000000
  0.444444  0.444444  0.500000      2.000000
  0.500000  0.444444  0.500000      4.000000
 -0.444444  0.444444  0.500000      2.000000
  0.500000  0.500000  0.500000      1.000000

 Following cartesian coordinates:
            Coordinates               Weight
  0.000000  0.000000  0.000000      1.000000
  0.022519  0.013002  0.000000      4.000000
  0.045037  0.026005  0.000000      4.000000
  0.067556  0.039007  0.000000      4.000000
  0.090075  0.052010  0.000000      4.000000
  0.112593  0.065012  0.000000      4.000000
  0.135112  0.078015  0.000000      4.000000
  0.157631  0.091017  0.000000      4.000000
  0.180149  0.104020  0.000000      4.000000
  0.202668  0.117022  0.000000      2.000000
  0.022520  0.039005  0.000000      2.000000
  0.045038  0.052008  0.000000      4.000000
  0.067557  0.065010  0.000000      4.000000
  0.090076  0.078013  0.000000      4.000000
  0.112594  0.091015  0.000000      4.000000
  0.135113  0.104018  0.000000      4.000000
  0.157632  0.117020  0.000000      4.000000
  0.180150  0.130023  0.000000      4.000000
  0.202669  0.143025  0.000000      4.000000
 -0.180148 -0.078017  0.000000      4.000000
 -0.157629 -0.065015  0.000000      4.000000
 -0.135111 -0.052012  0.000000      4.000000
 -0.112592 -0.039010  0.000000      4.000000
 -0.090073 -0.026007  0.000000      4.000000
 -0.067555 -0.013005  0.000000      4.000000
 -0.045036 -0.000002  0.000000      4.000000
 -0.022517  0.013000  0.000000      2.000000
  0.045040  0.078011  0.000000      2.000000
  0.067558  0.091013  0.000000      4.000000
  0.090077  0.104016  0.000000      4.000000
  0.112596  0.117018  0.000000      4.000000
  0.135114  0.130021  0.000000      4.000000
  0.157633  0.143023  0.000000      4.000000
  0.180152  0.156026  0.000000      4.000000
  0.202670  0.169028  0.000000      4.000000
 -0.180147 -0.052014  0.000000      4.000000
 -0.157628 -0.039012  0.000000      4.000000
 -0.135110 -0.026009  0.000000      4.000000
 -0.112591 -0.013007  0.000000      4.000000
 -0.090072 -0.000004  0.000000      4.000000
 -0.067554  0.012998  0.000000      4.000000
 -0.045035  0.026001  0.000000      2.000000
  0.067559  0.117016  0.000000      2.000000
  0.090078  0.130019  0.000000      4.000000
  0.112597  0.143021  0.000000      4.000000
  0.135115  0.156024  0.000000      4.000000
  0.157634  0.169026  0.000000      4.000000
  0.180153  0.182029  0.000000      4.000000
  0.202671  0.195031  0.000000      4.000000
 -0.180146 -0.026011  0.000000      4.000000
 -0.157627 -0.013009  0.000000      4.000000
 -0.135108 -0.000006  0.000000      4.000000
 -0.112590  0.012996  0.000000      4.000000
 -0.090071  0.025999  0.000000      4.000000
 -0.067552  0.039001  0.000000      2.000000
  0.090079  0.156022  0.000000      2.000000
  0.112598  0.169024  0.000000      4.000000
  0.135117  0.182027  0.000000      4.000000
  0.157635  0.195029  0.000000      4.000000
  0.180154  0.208032  0.000000      4.000000
[...]
  0.157638  0.247035  0.099122      4.000000
  0.180156  0.260038  0.099122      4.000000
  0.202675  0.273040  0.099122      4.000000
 -0.180142  0.051998  0.099122      4.000000
 -0.157623  0.065000  0.099122      4.000000
 -0.135105  0.078003  0.099122      2.000000
  0.157639  0.273038  0.099122      2.000000
  0.180157  0.286041  0.099122      4.000000
  0.202676  0.299043  0.099122      4.000000
 -0.180141  0.078001  0.099122      4.000000
 -0.157622  0.091003  0.099122      2.000000
  0.180159  0.312044  0.099122      2.000000
  0.202677  0.325046  0.099122      4.000000
 -0.180140  0.104004  0.099122      2.000000
  0.202678  0.351049  0.099122      1.000000

 TETIRR: Found   3888 inequivalent tetrahedra from    15552

 I would recommend the setting:
   dimension x,y,z NGX =    20 NGY =   20 NGZ =   40
 SYSTEM =  graphite
 POSCAR =  CIF file

 Startparameter for this run:
   NWRITE =      2    write-flag & timer
   PREC   = accura    normal or accurate (medium, high low for compatibility)
   ISTART =      0    job   : 0-new  1-cont  2-samecut
   ICHARG =      2    charge: 1-file 2-atom 10-const
   ISPIN  =      1    spin polarized calculation?
   LNONCOLLINEAR =      F non collinear calculations
   LSORBIT =      F    spin-orbit coupling
[...]
 k-point 29 :   0.1667 0.1111 0.0000  plane waves:     886
 k-point 30 :   0.2222 0.1111 0.0000  plane waves:     881
 k-point 31 :   0.2778 0.1111 0.0000  plane waves:     882
 k-point 32 :   0.3333 0.1111 0.0000  plane waves:     889
 k-point 33 :   0.3889 0.1111 0.0000  plane waves:     901
 k-point 34 :   0.4444 0.1111 0.0000  plane waves:     899
 k-point 35 :   0.5000 0.1111 0.0000  plane waves:     899
 k-point 36 :  -0.4444 0.1111 0.0000  plane waves:     889
 k-point 37 :  -0.3889 0.1111 0.0000  plane waves:     882
 k-point 38 :  -0.3333 0.1111 0.0000  plane waves:     881
 k-point 39 :  -0.2778 0.1111 0.0000  plane waves:     886
 k-point 40 :  -0.2222 0.1111 0.0000  plane waves:     885
 k-point 41 :  -0.1667 0.1111 0.0000  plane waves:     878
 k-point 42 :  -0.1111 0.1111 0.0000  plane waves:     871
 k-point 43 :   0.1667 0.1667 0.0000  plane waves:     889
 k-point 44 :   0.2222 0.1667 0.0000  plane waves:     886
 k-point 45 :   0.2778 0.1667 0.0000  plane waves:     887
 k-point 46 :   0.3333 0.1667 0.0000  plane waves:     891
 k-point 47 :   0.3889 0.1667 0.0000  plane waves:     893
 k-point 48 :   0.4444 0.1667 0.0000  plane waves:     893
 k-point 49 :   0.5000 0.1667 0.0000  plane waves:     891
 k-point 50 :  -0.4444 0.1667 0.0000  plane waves:     885
 k-point 51 :  -0.3889 0.1667 0.0000  plane waves:     886
 k-point 52 :  -0.3333 0.1667 0.0000  plane waves:     889
 k-point 53 :  -0.2778 0.1667 0.0000  plane waves:     886
 k-point 54 :  -0.2222 0.1667 0.0000  plane waves:     881
 k-point 55 :  -0.1667 0.1667 0.0000  plane waves:     869
 k-point 56 :   0.2222 0.2222 0.0000  plane waves:     893
 k-point 57 :   0.2778 0.2222 0.0000  plane waves:     896
 k-point 58 :   0.3333 0.2222 0.0000  plane waves:     894
 k-point 59 :   0.3889 0.2222 0.0000  plane waves:     887
 k-point 60 :   0.4444 0.2222 0.0000  plane waves:     894
[...]
 k-point 85 :   0.5000 0.3889 0.0000  plane waves:     899
 k-point 86 :  -0.4444 0.3889 0.0000  plane waves:     888
 k-point 87 :  -0.3889 0.3889 0.0000  plane waves:     884
 k-point 88 :   0.4444 0.4444 0.0000  plane waves:     899
 k-point 89 :   0.5000 0.4444 0.0000  plane waves:     884
 k-point 90 :  -0.4444 0.4444 0.0000  plane waves:     880
 k-point 91 :   0.5000 0.5000 0.0000  plane waves:     880
 k-point 92 :   0.0000 0.0000 0.1250  plane waves:     884
 k-point 93 :   0.0556 0.0000 0.1250  plane waves:     872
 k-point 94 :   0.1111 0.0000 0.1250  plane waves:     867
 k-point 95 :   0.1667 0.0000 0.1250  plane waves:     880
 k-point 96 :   0.2222 0.0000 0.1250  plane waves:     883
 k-point 97 :   0.2778-0.0000 0.1250  plane waves:     881
 k-point 98 :   0.3333 0.0000 0.1250  plane waves:     882
 k-point 99 :   0.3889 0.0000 0.1250  plane waves:     886
 k-point ** :   0.4444 0.0000 0.1250  plane waves:     886
 k-point ** :   0.5000 0.0000 0.1250  plane waves:     872
 k-point ** :   0.0556 0.0556 0.1250  plane waves:     869
 k-point ** :   0.1111 0.0556 0.1250  plane waves:     872
 k-point ** :   0.1667 0.0556 0.1250  plane waves:     879
 k-point ** :   0.2222 0.0556 0.1250  plane waves:     884
 k-point ** :   0.2778 0.0556 0.1250  plane waves:     880
 k-point ** :   0.3333 0.0556 0.1250  plane waves:     886
 k-point ** :   0.3889 0.0556 0.1250  plane waves:     887
 k-point ** :   0.4444 0.0556 0.1250  plane waves:     885
 k-point ** :   0.5000 0.0556 0.1250  plane waves:     885
 k-point ** :  -0.4444 0.0556 0.1250  plane waves:     887
 k-point ** :  -0.3889 0.0556 0.1250  plane waves:     886
 k-point ** :  -0.3333 0.0556 0.1250  plane waves:     880
 k-point ** :  -0.2778 0.0556 0.1250  plane waves:     884
 k-point ** :  -0.2222 0.0556 0.1250  plane waves:     879
 k-point ** :  -0.1667 0.0556 0.1250  plane waves:     872
 k-point ** :  -0.1111 0.0556 0.1250  plane waves:     869
 k-point ** :  -0.0556 0.0556 0.1250  plane waves:     872
 k-point ** :   0.1111 0.1111 0.1250  plane waves:     881
 k-point ** :   0.1667 0.1111 0.1250  plane waves:     883
 k-point ** :   0.2222 0.1111 0.1250  plane waves:     885
 k-point ** :   0.2778 0.1111 0.1250  plane waves:     888
 k-point ** :   0.3333 0.1111 0.1250  plane waves:     889
 k-point ** :   0.3889 0.1111 0.1250  plane waves:     892
 k-point ** :   0.4444 0.1111 0.1250  plane waves:     892
 k-point ** :   0.5000 0.1111 0.1250  plane waves:     892
 k-point ** :  -0.4444 0.1111 0.1250  plane waves:     889
 k-point ** :  -0.3889 0.1111 0.1250  plane waves:     888
 k-point ** :  -0.3333 0.1111 0.1250  plane waves:     885
 k-point ** :  -0.2778 0.1111 0.1250  plane waves:     883
 k-point ** :  -0.2222 0.1111 0.1250  plane waves:     881
 k-point ** :  -0.1667 0.1111 0.1250  plane waves:     872
 k-point ** :  -0.1111 0.1111 0.1250  plane waves:     866
 k-point ** :   0.1667 0.1667 0.1250  plane waves:     880
 k-point ** :   0.2222 0.1667 0.1250  plane waves:     887
 k-point ** :   0.2778 0.1667 0.1250  plane waves:     892
 k-point ** :   0.3333 0.1667 0.1250  plane waves:     894
 k-point ** :   0.3889 0.1667 0.1250  plane waves:     897
 k-point ** :   0.4444 0.1667 0.1250  plane waves:     897
 k-point ** :   0.5000 0.1667 0.1250  plane waves:     894
 k-point ** :  -0.4444 0.1667 0.1250  plane waves:     892
 k-point ** :  -0.3889 0.1667 0.1250  plane waves:     887
 k-point ** :  -0.3333 0.1667 0.1250  plane waves:     880
 k-point ** :  -0.2778 0.1667 0.1250  plane waves:     883
 k-point ** :  -0.2222 0.1667 0.1250  plane waves:     879
 k-point ** :  -0.1667 0.1667 0.1250  plane waves:     880
 k-point ** :   0.2222 0.2222 0.1250  plane waves:     893
 k-point ** :   0.2778 0.2222 0.1250  plane waves:     898
 k-point ** :   0.3333 0.2222 0.1250  plane waves:     898
 k-point ** :   0.3889 0.2222 0.1250  plane waves:     896
 k-point ** :   0.4444 0.2222 0.1250  plane waves:     899
 k-point ** :   0.5000 0.2222 0.1250  plane waves:     898
 k-point ** :  -0.4444 0.2222 0.1250  plane waves:     893
 k-point ** :  -0.3889 0.2222 0.1250  plane waves:     887
 k-point ** :  -0.3333 0.2222 0.1250  plane waves:     885
 k-point ** :  -0.2778 0.2222 0.1250  plane waves:     884
 k-point ** :  -0.2222 0.2222 0.1250  plane waves:     883
 k-point ** :   0.2778 0.2778 0.1250  plane waves:     896
 k-point ** :   0.3333 0.2778 0.1250  plane waves:     895
[...]
 k-point ** :   0.3889 0.3333 0.5000  plane waves:     906
 k-point ** :   0.4444 0.3333 0.5000  plane waves:     896
 k-point ** :   0.5000 0.3333 0.5000  plane waves:     892
 k-point ** :  -0.4444 0.3333 0.5000  plane waves:     886
 k-point ** :  -0.3889 0.3333 0.5000  plane waves:     890
 k-point ** :  -0.3333 0.3333 0.5000  plane waves:     884
 k-point ** :   0.3889 0.3889 0.5000  plane waves:     896
 k-point ** :   0.4444 0.3889 0.5000  plane waves:     894
 k-point ** :   0.5000 0.3889 0.5000  plane waves:     892
 k-point ** :  -0.4444 0.3889 0.5000  plane waves:     896
 k-point ** :  -0.3889 0.3889 0.5000  plane waves:     900
 k-point ** :   0.4444 0.4444 0.5000  plane waves:     894
 k-point ** :   0.5000 0.4444 0.5000  plane waves:     902
 k-point ** :  -0.4444 0.4444 0.5000  plane waves:     896
 k-point ** :   0.5000 0.5000 0.5000  plane waves:     892

 maximum and minimum number of plane-waves per node :       308      283

 maximum number of plane-waves:       912
 maximum index in each direction:
   IXMAX=    5   IYMAX=    4   IZMAX=   10
   IXMIN=   -5   IYMIN=   -5   IZMIN=  -10

 WARNING: aliasing errors must be expected set NGX to  22 to avoid them
 NGY is ok and might be reduce to  20
 WARNING: aliasing errors must be expected set NGZ to  42 to avoid them
 aliasing errors are usually negligible using standard VASP settings
 and one can safely disregard these warnings

 parallel 3D FFT for wavefunctions:
    minimum data exchange during FFTs selected (reduces bandwidth)
 parallel 3D FFT for charge:
    minimum data exchange during FFTs selected (reduces bandwidth)

 Broyden mixing: mesh for mixing (old mesh)
   NGX =  9   NGY =  9   NGZ = 21
  (NGX  = 40   NGY  = 40   NGZ  = 80)
  gives a total of   1701 points

 initial charge density was supplied:
 charge density of overlapping atoms calculated
 number of electron      16.0000000 magnetization
 keeping initial charge density in first step

 Maximum index for augmentation-charges         1295 (set IRDMAX)

 First call to EWALD:  gamma=   0.594
 Maximum number of real-space cells 4x 4x 2
 Maximum number of reciprocal cells 2x 2x 4

 FEWALD executed in parallel

----------------------------------------- Iteration    1(   1)  ---------------------------------------

 BZINTS: Fermi energy: 16.821948; 16.000000 electrons
         Band energy:  30.793037;  BLOECHL correction: -0.622885

 eigenvalue-minimisations  : 10936
 total energy-change (2. order) : 0.4210034E+02  (-0.9377203E+03)
 number of electron      16.0000000 magnetization
 augmentation part       16.0000000 magnetization

 Free energy of the ion-electron system (eV)
  alpha Z        PSCENC =        49.03084032
  Ewald energy   TEWEN  =      -613.56489431
  -Hartree energ DENC   =       -64.50090968
  -exchange      EXHF   =         0.00000000
  -V(xc)+E(xc)   XCENC  =        56.34303442
  PAW double counting   =       151.32577238     -155.92769107
  entropy T*S    EENTRO =         0.00000000
  eigenvalues    EBANDS =        30.79303716
  atomic energy  EATOM  =       588.60115103
  free energy    TOTEN  =        42.10034026 eV

  energy without entropy =       42.10034026  energy(sigma->0) =       42.10034026

[...]

 eigenvalue-minimisations  : 15092
 total energy-change (2. order) :-0.7699298E+02  (-0.7027571E+02)
 number of electron      16.0000000 magnetization
 augmentation part       16.0000000 magnetization

[...]

 Broyden mixing:
  rms(total) = 0.77668E+00    rms(broyden)= 0.77660E+00
  rms(prec ) = 0.14478E+01
  weight for this iteration     100.00

[...]

 eigenvalues of (default mixing * dielectric matrix)
  average eigenvalue GAMMA=   2.0458
  2.0458

[...]

 eigenvalue-minimisations  : 12876
 total energy-change (2. order) :-0.4677550E-05  (-0.5834326E-06)
 number of electron      16.0000001 magnetization
 augmentation part        0.3853920 magnetization

 Broyden mixing:
  rms(total) = 0.92907E-04    rms(broyden)= 0.92834E-04
  rms(prec ) = 0.15537E-03
  weight for this iteration     100.00

 eigenvalues of (default mixing * dielectric matrix)
  average eigenvalue GAMMA=   1.8736
  2.8415  0.9656  1.0897  2.3892  2.0645  1.8913

[...]

----------------------------------------- Iteration    1(  12)  ---------------------------------------

 BZINTS: Fermi energy:  7.501623; 16.000000 electrons
         Band energy: -23.960250;  BLOECHL correction: -0.001828

 eigenvalue-minimisations  :  7808
 total energy-change (2. order) : 0.1667495E-06  (-0.7205188E-08)
 number of electron      16.0000001 magnetization
 augmentation part        0.3853920 magnetization

 Free energy of the ion-electron system (eV)
  alpha Z        PSCENC =        49.03084032
  Ewald energy   TEWEN  =      -613.56489431
  -Hartree energ DENC   =       -89.08739865
  -exchange      EXHF   =         0.00000000
  -V(xc)+E(xc)   XCENC  =        58.32605683
  PAW double counting   =       279.99066071     -285.17188154
  entropy T*S    EENTRO =         0.00000000
  eigenvalues    EBANDS =       -23.96025022
  atomic energy  EATOM  =       588.60115103
  free energy    TOTEN  =       -35.83571581 eV

  energy without entropy =      -35.83571581  energy(sigma->0) =      -35.83571581

 average (electrostatic) potential at core
  the test charge radii are     0.6991
  (the norm of the test charge is              1.0000)
       1 -47.8115       2 -47.8115       3 -47.5644       4 -47.5644

 E-fermi :   7.5016     XC(G=0): -12.2279     alpha+bet :-15.1024

 k-point     1 :       0.0000    0.0000    0.0000
  band No.  band energies     occupation
      1     -12.8503      2.00000
      2     -10.9132      2.00000
      3      -2.6981      2.00000
      4       3.9726      2.00000
      5       4.5178      2.00000
      6       4.5223      2.00000
      7       4.7557      2.00000
      8       4.7602      2.00000
      9      15.7307      0.00000
     10      15.7335      0.00000
     11      16.1655      0.00000
     12      16.1688      0.00000

[...]

 k-point   455 :       0.5000    0.5000    0.5000
  band No.  band energies     occupation
      1      -6.7278      2.00000
      2      -6.7278      2.00000
      3      -5.6868      2.00000
      4      -5.6868      2.00000
      5       1.2499      2.00000
      6       1.2499      2.00000
      7       5.3538      2.00000
      8       5.3538      2.00000
      9       9.2562      0.00000
     10       9.2562      0.00000
     11      14.9106      0.00000
     12      14.9106      0.00000

 soft charge-density along one line, spin component           1
         0         1         2         3         4         5         6         7         8         9
 total charge-density along one line

------------------------ aborting loop because EDIFF is reached ----------------------------------------

         DFTD3 V3.0 Rev 1
 IVDW         = 11
 DF pbe
 parameters
 VDW_S6       =    1.0000
 VDW_S8       =    0.7220
 VDW_SR       =    1.2170
 rs18     =    1.0000
 alpha6   =   14.0000
 alpha8   =   16.0000
 k1-k3    =   16.0000    1.3333   -4.0000
 VDW_RADIUS   =   50.2022 A
 VDW_CNRADIUS =   21.1671 A
 Edisp (eV)   -0.47051

 E6    (eV) :    -0.2796
 E8    (eV) :    -0.1910
 % E8        : 40.58

  FORCE on cell =-STRESS in cart. coord.  units (eV):
  Direction    XX          YY          ZZ          XY          YZ          ZX
  Alpha Z    49.03084    49.03084    49.03084
  Ewald     -74.66486   -74.71489  -464.18500    -0.04333    -0.00000     0.00000
  Hartree    66.94502    66.93687   -44.79441    -0.00706    -0.00000    -0.00000
  E(xc)     -59.09785   -59.09816   -60.53546    -0.00027    -0.00000    -0.00000
  Local    -208.48344  -208.43198   261.59620     0.04457    -0.00000    -0.00000
  n-local   -14.27744   -13.43437   -13.53941    -0.24548     0.03006    -0.02027
  augment    -1.56021    -1.56013    -1.42611     0.00006     0.00000    -0.00000
  Kinetic   244.88021   237.67401   282.12064     2.08442    -0.32129     0.19270
  Fock        0.00000     0.00000     0.00000     0.00000     0.00000     0.00000
  vdW         0.11545     0.11560    -0.03747     0.00013    -0.00000    -0.00000
  Total      -0.29472    -0.29974     8.22981    -0.00434     0.00000    -0.00000
  in kB     -17.75908   -18.06139   495.90418    -0.26181     0.00000    -0.00000

 VOLUME and BASIS-vectors are now :
  energy-cutoff  :      600.00
  volume of cell :       26.59
      direct lattice vectors                 reciprocal lattice vectors
     2.467155442 -0.000111200  0.000000000     0.405335638  0.234045000  0.000000000
    -1.233674023  2.136563688  0.000000000     0.000021096  0.468053460  0.000000000
     0.000000000  0.000000000  5.044306734     0.000000000  0.000000000  0.198243297

  length of vectors
     2.467155445  2.467155445  5.044306734     0.468053460  0.468053460  0.198243297

 FORCES acting on ions
    electron-ion (+dipol)            ewald-force                    non-local-force                 convergence-correction
   0.139E-03 -.925E-04 0.241E-12   -.279E-02 0.160E-02 -.137E-13   -.246E-02 0.142E-02 -.347E-17   0.466E-06 -.269E-06 0.447E-13
   -.150E-03 0.742E-04 0.105E-12   0.278E-02 -.162E-02 0.137E-13   0.246E-02 -.142E-02 0.347E-17   -.466E-06 0.269E-06 -.461E-13
   -.681E-02 0.393E-02 0.880E-13   0.319E-02 -.183E-02 -.137E-13   -.158E-03 0.915E-04 0.000E+00   -.142E-06 0.821E-07 0.444E-13
   0.681E-02 -.393E-02 0.245E-13   -.318E-02 0.185E-02 0.137E-13   0.158E-03 -.915E-04 0.000E+00   0.142E-06 -.819E-07 -.474E-13
   -.684E-05 -.118E-04 0.458E-12   -.779E-14 -.379E-14 0.000E+00   -.111E-15 -.111E-15 0.000E+00   -.985E-11 -.171E-10 -.446E-14

 POSITION                                       TOTAL-FORCE (eV/Angst)
      2.46715     -0.00011      1.26108        -0.005099      0.002944     -0.000000
     -1.23367      2.13656      3.78323         0.005099     -0.002944      0.000000
     -0.00019      1.42441      1.26108        -0.003781      0.002183     -0.000000
      1.23367      0.71204      3.78323         0.003781     -0.002183      0.000000
    total drift:                               -0.000007     -0.000012      0.000000

  FREE ENERGIE OF THE ION-ELECTRON SYSTEM (eV)
  free  energy   TOTEN  =       -36.30622916 eV

  energy  without entropy=      -36.30622916  energy(sigma->0) =      -36.30622916

 reached required accuracy - stopping structural energy minimisation
 BZINTS: Fermi energy:  7.501623; 16.000000 electrons
         Band energy: -23.960250;  BLOECHL correction: -0.001828