 vasp.5.3.5 31Mar14 (build Nov 02 2014 15:17:37) complex

 executed on        ion-Intel-MKL date 2016.08.14  01:59:25

 INCAR:
 POTCAR:   PAW_PBE C 08Apr2002

 POTCAR:   PAW_PBE C 08Apr2002
   VRHFIN =C: s2p2

   TITEL  = PAW_PBE C 08Apr2002
   POMASS =   12.011; ZVAL   =    4.000    mass and valenz
   ENMAX  =  400.000; ENMIN  =  300.000 eV
   QCUT   =   -5.516; QGAM   =   11.032    optimization parameters

   Description
     l     E      TYP  RCUT    TYP  RCUT
     0   .000     23  1.200
     0   .000     23  1.200
     1   .000     23  1.500
     1  2.500     23  1.500
     2   .000      7  1.500

 PAW_PBE C 08Apr2002                    :

 POSCAR: C
  positions in direct lattice
 exchange correlation table for  LEXCH =        8
   RHO(1)=    0.500       N(1)  =     2000
   RHO(2)=  100.500       N(2)  =     4000

 ion  position               nearest neighbor table
   1  0.499  0.000  0.124-  19 1.42  18 1.42  20 1.43
   2  1.000  0.000  0.125-  19 1.42  17 1.42  20 1.42
   3  0.500  0.500  0.125-  18 1.42  20 1.42  17 1.42
   4  1.000  0.500  0.125-  17 1.42  19 1.42  18 1.42
   5  0.500  0.000  0.625-  24 1.42  22 1.42  23 1.42
   6  1.000  0.000  0.625-  23 1.42  21 1.42  24 1.42
   7  0.500  0.500  0.625-  22 1.42  24 1.42  21 1.42
   8  1.000  0.500  0.625-  21 1.42  23 1.42  22 1.42
   9  0.000  0.500  0.375-  28 1.42  27 1.42  26 1.42
  10  0.500  0.500  0.375-  27 1.42  28 1.42  25 1.42
  11  0.000  1.000  0.375-  26 1.42  25 1.42  28 1.42
  12  0.500  1.000  0.375-  25 1.42  26 1.42  27 1.42
  13  0.000  0.500  0.875-  32 1.42  31 1.42  30 1.42
  14  0.500  0.500  0.875-  31 1.42  32 1.42  29 1.42
  15  0.000  1.000  0.875-  30 1.42  29 1.42  32 1.42
  16  0.500  1.000  0.875-  29 1.42  30 1.42  31 1.42
  17  0.167  0.333  0.125-   4 1.42   2 1.42   3 1.42
  18  0.667  0.333  0.125-   3 1.42   4 1.42   1 1.42
  19  0.167  0.833  0.125-   1 1.42   2 1.42   4 1.42
  20  0.667  0.833  0.125-   3 1.42   2 1.42   1 1.43
  21  0.167  0.333  0.625-   8 1.42   6 1.42   7 1.42
  22  0.667  0.333  0.625-   7 1.42   5 1.42   8 1.42
  23  0.167  0.833  0.625-   6 1.42   8 1.42   5 1.42
  24  0.667  0.833  0.625-   5 1.42   7 1.42   6 1.42
  25  0.333  0.167  0.375-  12 1.42  11 1.42  10 1.42
  26  0.833  0.167  0.375-  11 1.42  12 1.42   9 1.42
  27  0.333  0.667  0.375-  10 1.42   9 1.42  12 1.42
  28  0.833  0.667  0.375-   9 1.42  10 1.42  11 1.42
  29  0.333  0.167  0.875-  16 1.42  15 1.42  14 1.42
  30  0.833  0.167  0.875-  15 1.42  16 1.42  13 1.42
  31  0.333  0.667  0.875-  14 1.42  13 1.42  16 1.42
  32  0.833  0.667  0.875-  13 1.42  14 1.42  15 1.42

  LATTYP: Found a base centered orthorhombic cell.
 ALAT       =     4.9339256766
 B/A-ratio  =     1.7322311103
 C/A-ratio  =     1.7721112111

  Lattice vectors:

 A1 = (   4.9343108848,  -0.0002224000,   0.0000000000)
 A2 = (  -2.4673480464,   4.2731273763,   0.0000000000)
 A3 = (   0.0000000000,   0.0000000000,   8.7434650060)

Analysis of symmetry for initial positions (statically):
 Subroutine PRICEL returns:
 Original cell was already a primitive cell.

 Routine SETGRP: Setting up the symmetry group for a
 base centered orthorhombic supercell.

 Subroutine GETGRP returns: Found  1 space group operations
 (whereof  1 operations were pure point group operations)
 out of a pool of  8 trial point group operations.

The static configuration has the point symmetry C_1 .

Analysis of symmetry for dynamics (positions and initial velocities):
 Subroutine PRICEL returns:
 Original cell was already a primitive cell.

 Routine SETGRP: Setting up the symmetry group for a
 base centered orthorhombic supercell.

 Subroutine GETGRP returns: Found  1 space group operations
 (whereof  1 operations were pure point group operations)
 out of a pool of  8 trial point group operations.

The dynamic configuration has the point symmetry C_1 .

 KPOINTS: B4C B11C-CBC

Automatic generation of k-mesh.
Space group operators:
 irot       det(A)        alpha          n_x          n_y          n_z        tau_x        tau_y        tau_z
    1     1.000000     0.000001     1.000000     0.000000     0.000000     0.000000     0.000000     0.000000

 Subroutine IBZKPT returns following result:

 Found    163 irreducible k-points:

 Following reciprocal coordinates:
            Coordinates               Weight
  0.000000  0.000000  0.000000      1.000000
  0.111111 -0.000000  0.000000      2.000000
  0.222222 -0.000000  0.000000      2.000000
  0.333333 -0.000000  0.000000      2.000000
  0.444444 -0.000000  0.000000      2.000000
  0.000000  0.111111  0.000000      2.000000
  0.111111  0.111111  0.000000      2.000000
  0.222222  0.111111  0.000000      2.000000
  0.333333  0.111111  0.000000      2.000000
  0.444444  0.111111  0.000000      2.000000
 -0.444444  0.111111  0.000000      2.000000
 -0.333333  0.111111  0.000000      2.000000
 -0.222222  0.111111  0.000000      2.000000
 -0.111111  0.111111  0.000000      2.000000
  0.000000  0.222222  0.000000      2.000000
  0.111111  0.222222  0.000000      2.000000
  0.222222  0.222222  0.000000      2.000000
  0.333333  0.222222  0.000000      2.000000
  0.444444  0.222222  0.000000      2.000000
 -0.444444  0.222222  0.000000      2.000000
 -0.333333  0.222222  0.000000      2.000000
 -0.222222  0.222222  0.000000      2.000000
 -0.111111  0.222222  0.000000      2.000000
  0.000000  0.333333  0.000000      2.000000
  0.111111  0.333333  0.000000      2.000000
  0.222222  0.333333  0.000000      2.000000
  0.333333  0.333333  0.000000      2.000000
  0.444444  0.333333  0.000000      2.000000
 -0.444444  0.333333  0.000000      2.000000
 -0.333333  0.333333  0.000000      2.000000
 -0.222222  0.333333  0.000000      2.000000
 -0.111111  0.333333  0.000000      2.000000
  0.000000  0.444444  0.000000      2.000000
  0.111111  0.444444  0.000000      2.000000
  0.222222  0.444444  0.000000      2.000000
  0.333333  0.444444  0.000000      2.000000
  0.444444  0.444444  0.000000      2.000000
 -0.444444  0.444444  0.000000      2.000000
 -0.333333  0.444444  0.000000      2.000000
 -0.222222  0.444444  0.000000      2.000000
 -0.111111  0.444444  0.000000      2.000000
  0.000000  0.000000  0.250000      2.000000
  0.111111 -0.000000  0.250000      2.000000
  0.222222 -0.000000  0.250000      2.000000
  0.333333 -0.000000  0.250000      2.000000
  0.444444 -0.000000  0.250000      2.000000
 -0.444444  0.000000  0.250000      2.000000
 -0.333333  0.000000  0.250000      2.000000
 -0.222222  0.000000  0.250000      2.000000
 -0.111111  0.000000  0.250000      2.000000
  0.000000  0.111111  0.250000      2.000000
  0.111111  0.111111  0.250000      2.000000
  0.222222  0.111111  0.250000      2.000000
  0.333333  0.111111  0.250000      2.000000
  0.444444  0.111111  0.250000      2.000000
 -0.444444  0.111111  0.250000      2.000000
 -0.333333  0.111111  0.250000      2.000000
 -0.222222  0.111111  0.250000      2.000000
 -0.111111  0.111111  0.250000      2.000000
  0.000000  0.222222  0.250000      2.000000
[...]
  0.333333  0.333333  0.500000      2.000000
  0.444444  0.333333  0.500000      2.000000
 -0.444444  0.333333  0.500000      2.000000
 -0.333333  0.333333  0.500000      2.000000
 -0.222222  0.333333  0.500000      2.000000
 -0.111111  0.333333  0.500000      2.000000
  0.000000  0.444444  0.500000      2.000000
  0.111111  0.444444  0.500000      2.000000
  0.222222  0.444444  0.500000      2.000000
  0.333333  0.444444  0.500000      2.000000
  0.444444  0.444444  0.500000      2.000000
 -0.444444  0.444444  0.500000      2.000000
 -0.333333  0.444444  0.500000      2.000000
 -0.222222  0.444444  0.500000      2.000000
 -0.111111  0.444444  0.500000      2.000000

 Following cartesian coordinates:
            Coordinates               Weight
  0.000000  0.000000  0.000000      1.000000
  0.022519  0.013002  0.000000      2.000000
  0.045037  0.026005  0.000000      2.000000
  0.067556  0.039007  0.000000      2.000000
  0.090075  0.052010  0.000000      2.000000
  0.000001  0.026003  0.000000      2.000000
  0.022520  0.039005  0.000000      2.000000
  0.045038  0.052008  0.000000      2.000000
  0.067557  0.065010  0.000000      2.000000
  0.090076  0.078013  0.000000      2.000000
 -0.090073 -0.026007  0.000000      2.000000
 -0.067555 -0.013005  0.000000      2.000000
 -0.045036 -0.000002  0.000000      2.000000
 -0.022517  0.013000  0.000000      2.000000
  0.000002  0.052006  0.000000      2.000000
  0.022521  0.065008  0.000000      2.000000
  0.045040  0.078011  0.000000      2.000000
  0.067558  0.091013  0.000000      2.000000
  0.090077  0.104016  0.000000      2.000000
 -0.090072 -0.000004  0.000000      2.000000
 -0.067554  0.012998  0.000000      2.000000
 -0.045035  0.026001  0.000000      2.000000
 -0.022516  0.039003  0.000000      2.000000
  0.000004  0.078009  0.000000      2.000000
  0.022522  0.091011  0.000000      2.000000
  0.045041  0.104014  0.000000      2.000000
  0.067559  0.117016  0.000000      2.000000
  0.090078  0.130019  0.000000      2.000000
 -0.090071  0.025999  0.000000      2.000000
 -0.067552  0.039001  0.000000      2.000000
 -0.045034  0.052004  0.000000      2.000000
 -0.022515  0.065006  0.000000      2.000000
  0.000005  0.104012  0.000000      2.000000
  0.022523  0.117014  0.000000      2.000000
  0.045042  0.130017  0.000000      2.000000
  0.067561  0.143019  0.000000      2.000000
  0.090079  0.156022  0.000000      2.000000
 -0.090070  0.052002  0.000000      2.000000
 -0.067551  0.065004  0.000000      2.000000
 -0.045033  0.078007  0.000000      2.000000
 -0.022514  0.091009  0.000000      2.000000
  0.000000  0.000000  0.028593      2.000000
  0.022519  0.013002  0.028593      2.000000
  0.045037  0.026005  0.028593      2.000000
  0.067556  0.039007  0.028593      2.000000
  0.090075  0.052010  0.028593      2.000000
 -0.090075 -0.052010  0.028593      2.000000
 -0.067556 -0.039007  0.028593      2.000000
 -0.045037 -0.026005  0.028593      2.000000
 -0.022519 -0.013002  0.028593      2.000000
  0.000001  0.026003  0.028593      2.000000
  0.022520  0.039005  0.028593      2.000000
  0.045038  0.052008  0.028593      2.000000
  0.067557  0.065010  0.028593      2.000000
  0.090076  0.078013  0.028593      2.000000
 -0.090073 -0.026007  0.028593      2.000000
 -0.067555 -0.013005  0.028593      2.000000
 -0.045036 -0.000002  0.028593      2.000000
 -0.022517  0.013000  0.028593      2.000000
  0.000002  0.052006  0.028593      2.000000
[...]
  0.067559  0.117016  0.057186      2.000000
  0.090078  0.130019  0.057186      2.000000
 -0.090071  0.025999  0.057186      2.000000
 -0.067552  0.039001  0.057186      2.000000
 -0.045034  0.052004  0.057186      2.000000
 -0.022515  0.065006  0.057186      2.000000
  0.000005  0.104012  0.057186      2.000000
  0.022523  0.117014  0.057186      2.000000
  0.045042  0.130017  0.057186      2.000000
  0.067561  0.143019  0.057186      2.000000
  0.090079  0.156022  0.057186      2.000000
 -0.090070  0.052002  0.057186      2.000000
 -0.067551  0.065004  0.057186      2.000000
 -0.045033  0.078007  0.057186      2.000000
 -0.022514  0.091009  0.057186      2.000000

 I would recommend the setting:
[...]

[...]

----------------------------------------- Iteration    1(  12)  ---------------------------------------

 eigenvalue-minimisations  : 20796
 total energy-change (2. order) :-0.4538915E-06  (-0.1675017E-06)
 number of electron     127.9999992 magnetization
 augmentation part        3.1133075 magnetization

 Free energy of the ion-electron system (eV)
  alpha Z        PSCENC =       452.59237219
  Ewald energy   TEWEN  =     -5405.36706725
  -Hartree energ DENC   =      -490.98637198
  -exchange      EXHF   =         0.00000000
  -V(xc)+E(xc)   XCENC  =       473.02939930
  PAW double counting   =      2273.54879133    -2315.23676551
  entropy T*S    EENTRO =        -0.01850406
  eigenvalues    EBANDS =        31.70287048
  atomic energy  EATOM  =      4708.80920826
  free energy    TOTEN  =      -271.92606723 eV

  energy without entropy =     -271.90756317  energy(sigma->0) =     -271.91681520

 average (electrostatic) potential at core
  the test charge radii are     0.6991
  (the norm of the test charge is              1.0000)
       1 -46.0555       2 -46.0553       3 -46.0519       4 -46.0588       5 -46.0554
       6 -46.0554       7 -46.0558       8 -46.0549       9 -46.0544      10 -46.0545
      11 -46.0545      12 -46.0499      13 -46.0563      14 -46.0564      15 -46.0563
      16 -46.0610      17 -45.6024      18 -45.6024      19 -45.6008      20 -45.6040
      21 -45.6024      22 -45.6025      23 -45.6020      24 -45.6030      25 -45.6019
      26 -45.6018      27 -45.6018      28 -45.5993      29 -45.6033      30 -45.6031
      31 -45.6032      32 -45.6057

 E-fermi :   9.7495     XC(G=0): -13.1446     alpha+bet :-17.4259

 k-point     1 :       0.0000    0.0000    0.0000
  band No.  band energies     occupation
      1     -12.0758      2.00000
      2     -10.6689      2.00000
      3     -10.6638      2.00000
      4      -8.1550      2.00000
      5      -6.4001      2.00000
      6      -6.3991      2.00000
      7      -6.3987      2.00000
      8      -5.5784      2.00000
      9      -5.5768      2.00000
     10      -5.5746      2.00000
     11      -5.2501      2.00000
     12      -5.2448      2.00000
     13      -5.2437      2.00000
     14      -5.2430      2.00000
     15      -5.2418      2.00000
     16      -5.2364      2.00000
     17      -4.2018      2.00000
     18      -4.1992      2.00000
     19      -4.1971      2.00000
     20      -4.1969      2.00000
     21      -4.1942      2.00000
     22      -4.1923      2.00000
     23      -2.9123      2.00000
     24      -2.9113      2.00000
     25      -2.9098      2.00000
     26      -2.6443      2.00000
     27      -2.6428      2.00000
     28      -2.6414      2.00000
     29      -2.1731      2.00000
     30       2.2548      2.00000
     31       2.2575      2.00000
     32       2.2588      2.00000
     33       2.9381      2.00000
     34       2.9401      2.00000
     35       2.9429      2.00000
     36       2.9438      2.00000
     37       2.9448      2.00000
     38       2.9463      2.00000
     39       2.9470      2.00000
     40       2.9499      2.00000
     41       3.7313      2.00000
     42       3.7343      2.00000
     43       3.7360      2.00000
     44       3.7789      2.00000
     45       3.7795      2.00000
     46       3.7801      2.00000
     47       6.0381      2.00000
     48       6.0429      2.00000
     49       6.3609      2.00000
     50       6.3660      2.00000
     51       6.3710      2.00000
     52       6.3752      2.00000
     53       6.5193      2.00000
     54       6.5223      2.00000
     55       6.5235      2.00000
     56       6.6835      2.00000
     57       6.6898      2.00000
     58       7.6599      2.00000
     59       7.6727      2.00000
     60       7.6731      2.00000
[...]
     70      11.2021      0.00000
     71      13.5574      0.00000
     72      13.5594      0.00000
     73      13.5614      0.00000
     74      14.5376      0.00000
     75      14.5425      0.00000
     76      14.5459      0.00000
     77      14.6822      0.00000
     78      14.6844      0.00000
     79      14.6868      0.00000
     80      16.7039      0.00000
     81      16.7111      0.00000
     82      16.7139      0.00000
     83      16.7177      0.00000
     84      16.7266      0.00000

[...]

 k-point   163 :      -0.1111    0.4444    0.5000
  band No.  band energies     occupation
      1     -10.7197      2.00000
      2     -10.7145      2.00000
      3      -9.3578      2.00000
      4      -9.3527      2.00000
      5      -8.2209      2.00000
      6      -8.2191      2.00000
      7      -8.0257      2.00000
      8      -8.0206      2.00000
      9      -6.9597      2.00000
     10      -6.9581      2.00000
     11      -6.1201      2.00000
     12      -6.1151      2.00000
     13      -5.7396      2.00000
     14      -5.7382      2.00000
     15      -4.1429      2.00000
     16      -4.1411      2.00000
     17      -3.2933      2.00000
     18      -3.2878      2.00000
     19      -1.8740      2.00000
     20      -1.8729      2.00000
     21      -1.6598      2.00000
     22      -1.6548      2.00000
     23      -0.3984      2.00000
     24      -0.3960      2.00000
     25      -0.3908      2.00000
     26      -0.3869      2.00000
     27      -0.2425      2.00000
     28      -0.2412      2.00000
     29       0.5910      2.00000
     30       0.5967      2.00000
     31       0.8259      2.00000
     32       0.8288      2.00000
     33       1.1077      2.00000
     34       1.1088      2.00000
     35       1.1254      2.00000
     36       1.1280      2.00000
     37       2.1676      2.00000
     38       2.1741      2.00000
     39       2.2195      2.00000
     40       2.2220      2.00000
     41       2.7359      2.00000
     42       2.7399      2.00000
     43       3.0828      2.00000
     44       3.0865      2.00000
     45       3.5769      2.00000
     46       3.5842      2.00000
     47       3.7642      2.00000
     48       3.7694      2.00000
     49       4.0951      2.00000
     50       4.0958      2.00000
     51       4.3754      2.00000
     52       4.3811      2.00000
     53       5.1486      2.00000
     54       5.1499      2.00000
     55       5.4687      2.00000
     56       5.4780      2.00000
     57       7.4996      2.00000
     58       7.5047      2.00000
     59       8.4799      2.00000
     60       8.4844      2.00000
[...]
     70      13.1373      0.00000
     71      13.2648      0.00000
     72      13.2781      0.00000
     73      14.4865      0.00000
     74      14.4957      0.00000
     75      15.5951      0.00000
     76      15.6028      0.00000
     77      15.7024      0.00000
     78      15.7104      0.00000
     79      16.8091      0.00000
     80      16.8147      0.00000
     81      16.9223      0.00000
     82      16.9303      0.00000
     83      18.0622      0.00000
     84      18.0705      0.00000

 soft charge-density along one line, spin component           1
         0         1         2         3         4         5         6         7         8         9
 total charge-density along one line

------------------------ aborting loop because EDIFF is reached ----------------------------------------

         DFTD3 V3.0 Rev 1
 IVDW         = 11
 DF pbe
 parameters
 VDW_S6       =    1.0000
 VDW_S8       =    0.7220
 VDW_SR       =    1.2170
 rs18     =    1.0000
 alpha6   =   14.0000
 alpha8   =   16.0000
 k1-k3    =   16.0000    1.3333   -4.0000
 VDW_RADIUS   =   50.2022 A
 VDW_CNRADIUS =   21.1671 A
 Edisp (eV)   -3.62893

 E6    (eV) :    -2.2168
 E8    (eV) :    -1.4122
 % E8        : 38.91

  FORCE on cell =-STRESS in cart. coord.  units (eV):
  Direction    XX          YY          ZZ          XY          YZ          ZX
  Alpha Z   452.59237   452.59237   452.59237
  Ewald   -1080.18632 -1080.58656 -3244.61667     0.68743    -0.00008    -0.01178
  Hartree   317.62797   317.57963  -144.21738     0.09139     0.00000    -0.00256
  E(xc)    -478.81750  -478.81939  -486.62006     0.00201     0.00000    -0.00002
  Local   -1038.84410 -1038.47043  1367.21292    -0.64368     0.00004     0.01195
  n-local  -108.57054  -108.58589  -117.39956    -0.00544     0.00000     0.00016
  augment   -12.68865   -12.68799   -11.56495    -0.00109     0.00000     0.00002
  Kinetic  1949.24612  1949.39005  2328.33643    -0.04655    -0.00002     0.00006
  Fock        0.00000     0.00000     0.00000     0.00000     0.00000     0.00000
  vdW        -0.90728    -0.90661    -0.07206     0.00021    -0.00000     0.00002
  Total      -0.54795    -0.49482   143.65104     0.08427    -0.00006    -0.00216
  in kB      -4.76221    -4.30045  1248.46031     0.73238    -0.00049    -0.01874

 VOLUME and BASIS-vectors are now :
  energy-cutoff  :      600.00
  volume of cell :      184.35
      direct lattice vectors                 reciprocal lattice vectors
     4.934310885 -0.000222400  0.000000000     0.202667819  0.117022500  0.000000000
    -2.467348046  4.273127376  0.000000000     0.000010548  0.234026730  0.000000000
     0.000000000  0.000000000  8.743465006     0.000000000  0.000000000  0.114371133

  length of vectors
     4.934310890  4.934310890  8.743465006     0.234026730  0.234026730  0.114371133

 FORCES acting on ions
    electron-ion (+dipol)            ewald-force                    non-local-force                 convergence-correction
   -.106E+01 -.510E-02 0.121E+00   0.121E+01 0.848E-02 -.707E-01   0.126E+00 0.152E-02 0.740E-01   0.331E-03 0.733E-05 -.157E-03
   0.296E+00 0.668E-04 -.303E+00   -.313E+00 0.170E-02 0.293E+00   -.283E-01 0.126E-02 0.117E-01   -.407E-03 0.397E-05 -.135E-03
   0.413E-01 -.147E+00 -.303E+00   -.298E-01 0.165E+00 0.293E+00   -.983E-02 0.118E-01 0.117E-01   0.343E-04 0.251E-03 -.135E-03
   0.408E-01 0.148E+00 -.303E+00   -.297E-01 -.162E+00 0.293E+00   -.979E-02 -.954E-02 0.117E-01   0.294E-04 -.260E-03 -.140E-03
   -.727E-02 0.313E-03 0.152E+00   0.196E-02 0.168E-02 -.154E+00   -.216E-02 0.117E-02 0.551E-03   0.347E-03 0.265E-05 0.114E-03
   0.525E-02 0.410E-03 0.131E+00   -.771E-02 0.168E-02 -.131E+00   -.291E-02 0.115E-02 -.522E-02   -.343E-03 0.215E-05 0.110E-03
   -.149E-02 -.361E-02 0.131E+00   -.298E-02 0.442E-02 -.131E+00   -.261E-02 0.135E-02 -.520E-02   0.576E-06 0.200E-03 0.110E-03
   -.133E-02 0.410E-02 0.131E+00   -.298E-02 -.105E-02 -.131E+00   -.265E-02 0.101E-02 -.523E-02   0.768E-06 -.202E-03 0.113E-03
   -.236E-02 0.317E-01 0.684E-01   0.783E-03 -.305E-01 -.697E-01   0.328E-02 -.689E-03 0.201E-02   0.187E-04 -.200E-03 -.236E-04
   0.990E-02 -.252E-01 0.670E-01   0.768E-03 0.271E-01 -.697E-01   0.210E-02 -.232E-02 0.952E-02   -.144E-04 0.192E-03 0.111E-04
   0.530E-01 -.734E-02 0.675E-01   -.492E-01 -.170E-02 -.696E-01   0.411E-02 -.499E-03 0.575E-02   -.335E-03 0.944E-05 -.918E-05
   -.725E-01 -.270E-03 0.380E+00   0.784E-01 -.171E-02 -.407E+00   0.331E-02 -.118E-02 0.294E-01   0.324E-03 -.339E-05 0.405E-05
   0.995E-02 0.252E-01 0.662E-01   0.710E-03 -.312E-01 -.690E-01   0.215E-02 0.159E-04 0.951E-02   -.663E-05 -.184E-03 0.462E-04
   -.222E-02 -.328E-01 0.676E-01   0.694E-03 0.278E-01 -.690E-01   0.328E-02 -.170E-02 0.199E-02   0.154E-04 0.209E-03 0.865E-05
   0.541E-01 0.676E-02 0.670E-01   -.504E-01 -.170E-02 -.691E-01   0.421E-02 -.183E-02 0.577E-02   -.336E-03 -.203E-04 0.305E-04
   -.746E-01 -.262E-03 0.383E+00   0.808E-01 -.171E-02 -.410E+00   0.318E-02 -.117E-02 0.311E-01   0.320E-03 -.974E-05 0.464E-04
   0.111E+00 -.787E-04 -.240E+00   -.105E+00 -.192E-02 0.250E+00   -.118E-03 -.125E-02 -.222E-01   -.304E-03 0.140E-05 -.113E-03
   -.345E+00 0.798E-02 -.718E+00   0.335E+00 -.104E-01 0.765E+00   -.327E-01 -.998E-03 -.640E-01   0.240E-03 -.587E-05 -.155E-03
   0.464E+00 0.469E+00 -.724E+00   -.539E+00 -.509E+00 0.771E+00   -.257E-01 0.295E-02 -.643E-01   0.461E-04 -.109E-03 -.156E-03
   0.473E+00 -.470E+00 -.713E+00   -.547E+00 0.505E+00 0.760E+00   -.242E-01 -.606E-02 -.637E-01   0.335E-04 0.117E-03 -.154E-03
   0.187E-02 0.351E-03 0.129E+00   0.176E-02 -.234E-02 -.128E+00   0.271E-02 -.124E-02 0.667E-03   -.169E-03 0.583E-05 0.106E-03
   -.123E-02 0.290E-03 0.137E+00   0.652E-02 -.230E-02 -.139E+00   0.213E-02 -.126E-02 0.479E-02   0.168E-03 0.267E-05 0.119E-03
   -.288E-03 0.921E-03 0.137E+00   0.400E-02 -.381E-02 -.140E+00   0.254E-02 -.998E-03 0.478E-02   0.116E-05 -.975E-04 0.116E-03
   -.385E-03 -.100E-03 0.137E+00   0.408E-02 -.951E-03 -.139E+00   0.251E-02 -.145E-02 0.480E-02   -.384E-05 0.918E-04 0.120E-03
   -.834E-01 0.308E-01 0.914E-01   0.907E-01 -.346E-01 -.950E-01   -.290E-02 0.166E-02 -.905E-02   -.193E-04 0.110E-03 0.262E-04
   0.985E-01 0.733E-01 0.202E+00   -.116E+00 -.796E-01 -.211E+00   -.471E-02 -.219E-03 -.776E-02   0.272E-04 -.967E-04 -.372E-04
   -.293E-01 -.105E+00 0.147E+00   0.265E-01 0.122E+00 -.153E+00   -.218E-02 0.228E-02 -.841E-02   0.186E-03 -.247E-04 -.284E-05
   0.212E-01 -.298E-03 0.480E-01   -.268E-01 0.228E-02 -.556E-01   -.918E-03 0.126E-02 0.782E-02   -.194E-03 0.741E-05 -.300E-05
   0.995E-01 -.753E-01 0.203E+00   -.117E+00 0.859E-01 -.212E+00   -.470E-02 0.271E-02 -.768E-02   0.213E-04 0.892E-04 0.184E-05
   -.837E-01 -.314E-01 0.899E-01   0.913E-01 0.395E-01 -.937E-01   -.298E-02 0.778E-03 -.908E-02   -.766E-05 -.116E-03 0.615E-04
   -.301E-01 0.105E+00 0.146E+00   0.273E-01 -.118E+00 -.153E+00   -.217E-02 0.242E-03 -.836E-02   0.185E-03 0.220E-04 0.296E-04
   0.217E-01 -.314E-03 0.472E-01   -.273E-01 0.230E-02 -.549E-01   -.914E-03 0.126E-02 0.793E-02   -.197E-03 0.281E-05 0.317E-04
   0.821E-03 -.231E-04 0.447E-01   -.324E-14 0.883E-14 0.214E-13   -.819E-03 0.274E-04 -.447E-01   -.597E-05 -.160E-05 -.154E-04

 POSITION                                       TOTAL-FORCE (eV/Angst)
      2.46224     -0.00011      1.08422         0.275690      0.004909      0.125940
      4.93431     -0.00022      1.09293        -0.046309      0.003027      0.001482
      1.23348      2.13645      1.09293         0.001628      0.030764      0.001553
      3.70064      2.13634      1.09293         0.001220     -0.024355      0.001431
      2.46715     -0.00011      5.46467        -0.007141      0.003169      0.001005
      4.93431     -0.00022      5.46467        -0.005705      0.003246     -0.005277
      1.23348      2.13645      5.46467        -0.007079      0.002350     -0.005266
      3.70064      2.13634      5.46467        -0.006954      0.003867     -0.005288
     -1.23367      2.13656      3.27880         0.001716      0.000182      0.000509
      1.23348      2.13645      3.27880         0.012748     -0.000145      0.006727
     -2.46735      4.27313      3.27880         0.007517     -0.009538      0.003598
     -0.00019      4.27302      3.27880         0.009672     -0.003162      0.001813
     -1.23367      2.13656      7.65053         0.012802     -0.006210      0.006718
      1.23348      2.13645      7.65053         0.001755     -0.006510      0.000497
     -2.46735      4.27313      7.65053         0.007540      0.003214      0.003632
     -0.00019      4.27302      7.65053         0.009729     -0.003160      0.002963
     -0.00019      1.42441      1.09293         0.005858     -0.003260     -0.012473
      2.46696      1.42430      1.09293        -0.042715     -0.003476     -0.017305
     -1.23387      3.56098      1.09293        -0.100848     -0.036922     -0.016765
      1.23329      3.56086      1.09293        -0.098650      0.028950     -0.017779
     -0.00019      1.42441      5.46467         0.006197     -0.003237      0.001807
      2.46696      1.42430      5.46467         0.007587     -0.003272      0.003082
     -1.23387      3.56098      5.46467         0.006261     -0.003989      0.003076
      1.23329      3.56086      5.46467         0.006212     -0.002425      0.003087
      1.23367      0.71204      3.27880         0.004471     -0.002111     -0.012826
      3.70083      0.71193      3.27880        -0.022139     -0.006745     -0.016717
     -0.00000      2.84860      3.27880        -0.004822      0.018589     -0.014789
      2.46715      2.84849      3.27880        -0.006778      0.003255      0.000227
      1.23367      0.71204      7.65053        -0.022565      0.013492     -0.017082
      3.70083      0.71193      7.65053         0.004705      0.008765     -0.012907
     -0.00000      2.84860      7.65053        -0.004836     -0.012516     -0.014967
      2.46715      2.84849      7.65053        -0.006765      0.003252      0.000295
    total drift:                               -0.000004      0.000003     -0.000048

  FREE ENERGIE OF THE ION-ELECTRON SYSTEM (eV)
  free  energy   TOTEN  =      -275.55499454 eV

  energy  without entropy=     -275.53649049  energy(sigma->0) =     -275.54574251