 vasp.5.3.5 31Mar14 (build Nov 02 2014 15:17:37) complex

 executed on        ion-Intel-MKL date 2016.10.14  07:13:30

 INCAR:
 POTCAR:   PAW_PBE C 08Apr2002
 POTCAR:   PAW_PBE C 08Apr2002
   VRHFIN =C: s2p2

   TITEL  = PAW_PBE C 08Apr2002
   POMASS =   12.011; ZVAL   =    4.000    mass and valenz
   ENMAX  =  400.000; ENMIN  =  300.000 eV
   QCUT   =   -5.516; QGAM   =   11.032    optimization parameters

   Description
     l     E      TYP  RCUT    TYP  RCUT
     0   .000     23  1.200
     0   .000     23  1.200
     1   .000     23  1.500
     1  2.500     23  1.500
     2   .000      7  1.500

 PAW_PBE C 08Apr2002                    :

 POSCAR: CIF file
  positions in direct lattice
  velocities in cartesian coordinates
 exchange correlation table for  LEXCH =        8
   RHO(1)=    0.500       N(1)  =     2000
   RHO(2)=  100.500       N(2)  =     4000

 ion  position               nearest neighbor table
   1  0.999  0.001  0.250-   3 1.42   3 1.42   3 1.42
   2  0.001  0.999  0.750-   4 1.42   4 1.42   4 1.42
   3  0.333  0.667  0.250-   1 1.42   1 1.42   1 1.42
   4  0.667  0.333  0.750-   2 1.42   2 1.42   2 1.42

  LATTYP: Found a base centered orthorhombic cell.
 ALAT       =     2.4647750986
 B/A-ratio  =     1.7336081796
 C/A-ratio  =     2.5291742391

  Lattice vectors:

 A1 = (   2.4664372490,  -0.0009596430,   0.0000000000)
 A2 = (  -1.2340496996,   2.1355174929,   0.0000000000)
 A3 = (   0.0000000000,   0.0000000000,   6.2338456845)

Analysis of symmetry for initial positions (statically):
 Subroutine PRICEL returns:
 Original cell was already a primitive cell.

 Routine SETGRP: Setting up the symmetry group for a
 base centered orthorhombic supercell.

 Subroutine GETGRP returns: Found  8 space group operations
 (whereof  4 operations were pure point group operations)
 out of a pool of  8 trial point group operations.

The static configuration has the point symmetry C_2h.
 The point group associated with its full space group is D_2h.

Analysis of symmetry for dynamics (positions and initial velocities):
 Subroutine PRICEL returns:
 Original cell was already a primitive cell.

 Routine SETGRP: Setting up the symmetry group for a
 base centered orthorhombic supercell.

 Subroutine GETGRP returns: Found  8 space group operations
 (whereof  4 operations were pure point group operations)
 out of a pool of  8 trial point group operations.

The dynamic configuration has the point symmetry C_2h.
 The point group associated with its full space group is D_2h.

 KPOINTS: B4C B11C-CBC

Automatic generation of k-mesh.
Space group operators:
 irot       det(A)        alpha          n_x          n_y          n_z        tau_x        tau_y        tau_z
    1     1.000000     0.000000     1.000000     0.000000     0.000000     0.000000     0.000000     0.000000
    2    -1.000000     0.000000     1.000000     0.000000     0.000000     0.000000     0.000000     0.000000
    3     1.000000   180.000000    -0.500000    -0.866025     0.000000     0.000000     0.000000     0.000000
    4    -1.000000   180.000000    -0.500000    -0.866025     0.000000     0.000000     0.000000     0.000000
    5     1.000000   180.000000     0.000000     0.000000     1.000000     0.000000     0.000000     0.500000
    6    -1.000000   180.000000     0.000000     0.000000     1.000000     0.000000     0.000000     0.500000
    7     1.000000   180.000000     0.866025    -0.500000     0.000000     0.000000     0.000000     0.500000
    8    -1.000000   180.000000     0.866025    -0.500000     0.000000     0.000000     0.000000     0.500000

 Subroutine IBZKPT returns following result:

 Found    215 irreducible k-points:

 Following reciprocal coordinates:
            Coordinates               Weight
  0.000000  0.000000  0.000000      1.000000
  0.083333  0.000000  0.000000      4.000000
  0.166667  0.000000  0.000000      4.000000
  0.250000  0.000000  0.000000      4.000000
  0.333333  0.000000  0.000000      4.000000
  0.416667  0.000000  0.000000      4.000000
  0.500000  0.000000  0.000000      2.000000
  0.083333  0.083333  0.000000      2.000000
  0.166667  0.083333  0.000000      4.000000
  0.250000  0.083333  0.000000      4.000000
  0.333333  0.083333  0.000000      4.000000
  0.416667  0.083333  0.000000      4.000000
  0.500000  0.083333  0.000000      4.000000
 -0.416667  0.083333  0.000000      4.000000
 -0.333333  0.083333  0.000000      4.000000
 -0.250000  0.083333  0.000000      4.000000
 -0.166667  0.083333  0.000000      4.000000
 -0.083333  0.083333  0.000000      2.000000
  0.166667  0.166667  0.000000      2.000000
  0.250000  0.166667  0.000000      4.000000
  0.333333  0.166667  0.000000      4.000000
  0.416667  0.166667  0.000000      4.000000
  0.500000  0.166667  0.000000      4.000000
 -0.416667  0.166667  0.000000      4.000000
 -0.333333  0.166667  0.000000      4.000000
 -0.250000  0.166667  0.000000      4.000000
 -0.166667  0.166667  0.000000      2.000000
  0.250000  0.250000  0.000000      2.000000
  0.333333  0.250000  0.000000      4.000000
  0.416667  0.250000  0.000000      4.000000
  0.500000  0.250000  0.000000      4.000000
 -0.416667  0.250000  0.000000      4.000000
 -0.333333  0.250000  0.000000      4.000000
 -0.250000  0.250000  0.000000      2.000000
  0.333333  0.333333  0.000000      2.000000
  0.416667  0.333333  0.000000      4.000000
  0.500000  0.333333  0.000000      4.000000
 -0.416667  0.333333  0.000000      4.000000
 -0.333333  0.333333  0.000000      2.000000
  0.416667  0.416667  0.000000      2.000000
  0.500000  0.416667  0.000000      4.000000
 -0.416667  0.416667  0.000000      2.000000
  0.500000  0.500000  0.000000      1.000000
  0.000000  0.000000  0.125000      2.000000
  0.083333  0.000000  0.125000      8.000000
  0.166667  0.000000  0.125000      8.000000
  0.250000  0.000000  0.125000      8.000000
  0.333333  0.000000  0.125000      8.000000
  0.416667  0.000000  0.125000      8.000000
  0.500000  0.000000  0.125000      4.000000
  0.083333  0.083333  0.125000      4.000000
  0.166667  0.083333  0.125000      8.000000
  0.250000  0.083333  0.125000      8.000000
  0.333333  0.083333  0.125000      8.000000
  0.416667  0.083333  0.125000      8.000000
  0.500000  0.083333  0.125000      8.000000
 -0.416667  0.083333  0.125000      8.000000
 -0.333333  0.083333  0.125000      8.000000
 -0.250000  0.083333  0.125000      8.000000
 -0.166667  0.083333  0.125000      8.000000
[...]
  0.333333  0.250000  0.500000      4.000000
  0.416667  0.250000  0.500000      4.000000
  0.500000  0.250000  0.500000      4.000000
 -0.416667  0.250000  0.500000      4.000000
 -0.333333  0.250000  0.500000      4.000000
 -0.250000  0.250000  0.500000      2.000000
  0.333333  0.333333  0.500000      2.000000
  0.416667  0.333333  0.500000      4.000000
  0.500000  0.333333  0.500000      4.000000
 -0.416667  0.333333  0.500000      4.000000
 -0.333333  0.333333  0.500000      2.000000
  0.416667  0.416667  0.500000      2.000000
  0.500000  0.416667  0.500000      4.000000
 -0.416667  0.416667  0.500000      2.000000
  0.500000  0.500000  0.500000      1.000000

 Following cartesian coordinates:
            Coordinates               Weight
  0.000000  0.000000  0.000000      1.000000
  0.033795  0.019529  0.000000      4.000000
  0.067589  0.039058  0.000000      4.000000
  0.101384  0.058586  0.000000      4.000000
  0.135178  0.078115  0.000000      4.000000
  0.168973  0.097644  0.000000      4.000000
  0.202767  0.117173  0.000000      2.000000
  0.033810  0.058560  0.000000      2.000000
  0.067604  0.078089  0.000000      4.000000
  0.101399  0.097618  0.000000      4.000000
  0.135193  0.117147  0.000000      4.000000
  0.168988  0.136675  0.000000      4.000000
  0.202782  0.156204  0.000000      4.000000
 -0.168957 -0.058613  0.000000      4.000000
 -0.135163 -0.039084  0.000000      4.000000
 -0.101368 -0.019555  0.000000      4.000000
 -0.067574 -0.000026  0.000000      4.000000
 -0.033779  0.019503  0.000000      2.000000
  0.067619  0.117120  0.000000      2.000000
  0.101414  0.136649  0.000000      4.000000
  0.135208  0.156178  0.000000      4.000000
  0.169003  0.175707  0.000000      4.000000
  0.202798  0.195236  0.000000      4.000000
 -0.168942 -0.019581  0.000000      4.000000
 -0.135148 -0.000053  0.000000      4.000000
 -0.101353  0.019476  0.000000      4.000000
 -0.067559  0.039005  0.000000      2.000000
  0.101429  0.175680  0.000000      2.000000
  0.135224  0.195209  0.000000      4.000000
  0.169018  0.214738  0.000000      4.000000
  0.202813  0.234267  0.000000      4.000000
 -0.168927  0.019450  0.000000      4.000000
 -0.135133  0.038979  0.000000      4.000000
 -0.101338  0.058508  0.000000      2.000000
  0.135239  0.234241  0.000000      2.000000
  0.169033  0.253769  0.000000      4.000000
  0.202828  0.273298  0.000000      4.000000
 -0.168912  0.058481  0.000000      4.000000
 -0.135117  0.078010  0.000000      2.000000
  0.169049  0.292801  0.000000      2.000000
  0.202843  0.312329  0.000000      4.000000
 -0.168897  0.097513  0.000000      2.000000
  0.202858  0.351361  0.000000      1.000000
  0.000000  0.000000  0.020052      2.000000
  0.033795  0.019529  0.020052      8.000000
  0.067589  0.039058  0.020052      8.000000
  0.101384  0.058586  0.020052      8.000000
  0.135178  0.078115  0.020052      8.000000
  0.168973  0.097644  0.020052      8.000000
  0.202767  0.117173  0.020052      4.000000
  0.033810  0.058560  0.020052      4.000000
  0.067604  0.078089  0.020052      8.000000
  0.101399  0.097618  0.020052      8.000000
  0.135193  0.117147  0.020052      8.000000
  0.168988  0.136675  0.020052      8.000000
  0.202782  0.156204  0.020052      8.000000
 -0.168957 -0.058613  0.020052      8.000000
 -0.135163 -0.039084  0.020052      8.000000
 -0.101368 -0.019555  0.020052      8.000000
 -0.067574 -0.000026  0.020052      8.000000
[...]
  0.135224  0.195209  0.080207      4.000000
  0.169018  0.214738  0.080207      4.000000
  0.202813  0.234267  0.080207      4.000000
 -0.168927  0.019450  0.080207      4.000000
 -0.135133  0.038979  0.080207      4.000000
 -0.101338  0.058508  0.080207      2.000000
  0.135239  0.234241  0.080207      2.000000
  0.169033  0.253769  0.080207      4.000000
  0.202828  0.273298  0.080207      4.000000
 -0.168912  0.058481  0.080207      4.000000
 -0.135117  0.078010  0.080207      2.000000
  0.169049  0.292801  0.080207      2.000000
  0.202843  0.312329  0.080207      4.000000
 -0.168897  0.097513  0.080207      2.000000
  0.202858  0.351361  0.080207      1.000000

 TETIRR: Found   1728 inequivalent tetrahedra from     6912

 I would recommend the setting:
   dimension x,y,z NGX =    20 NGY =   20 NGZ =   50
 SYSTEM =  graphite
 POSCAR =  CIF file

 Startparameter for this run:
   NWRITE =      2    write-flag & timer
   PREC   = accura    normal or accurate (medium, high low for compatibility)
   ISTART =      0    job   : 0-new  1-cont  2-samecut
   ICHARG =      2    charge: 1-file 2-atom 10-const
   ISPIN  =      1    spin polarized calculation?
   LNONCOLLINEAR =      F non collinear calculations
   LSORBIT =      F    spin-orbit coupling
[...]
 k-point 28 :   0.2500 0.2500 0.0000  plane waves:    1113
 k-point 29 :   0.3333 0.2500 0.0000  plane waves:    1103
 k-point 30 :   0.4167 0.2500 0.0000  plane waves:    1103
 k-point 31 :   0.5000 0.2500 0.0000  plane waves:    1108
 k-point 32 :  -0.4167 0.2500 0.0000  plane waves:    1096
 k-point 33 :  -0.3333 0.2500 0.0000  plane waves:    1095
 k-point 34 :  -0.2500 0.2500 0.0000  plane waves:    1103
 k-point 35 :   0.3333 0.3333 0.0000  plane waves:    1107
 k-point 36 :   0.4167 0.3333 0.0000  plane waves:    1103
 k-point 37 :   0.5000 0.3333 0.0000  plane waves:    1101
 k-point 38 :  -0.4167 0.3333 0.0000  plane waves:    1093
 k-point 39 :  -0.3333 0.3333 0.0000  plane waves:    1086
 k-point 40 :   0.4167 0.4167 0.0000  plane waves:    1105
 k-point 41 :   0.5000 0.4167 0.0000  plane waves:    1099
 k-point 42 :  -0.4167 0.4167 0.0000  plane waves:    1098
 k-point 43 :   0.5000 0.5000 0.0000  plane waves:    1092
 k-point 44 :   0.0000 0.0000 0.1250  plane waves:    1069
 k-point 45 :   0.0833 0.0000 0.1250  plane waves:    1077
 k-point 46 :   0.1667 0.0000 0.1250  plane waves:    1086
 k-point 47 :   0.2500 0.0000 0.1250  plane waves:    1099
 k-point 48 :   0.3333 0.0000 0.1250  plane waves:    1096
 k-point 49 :   0.4167 0.0000 0.1250  plane waves:    1099
 k-point 50 :   0.5000 0.0000 0.1250  plane waves:    1086
 k-point 51 :   0.0833 0.0833 0.1250  plane waves:    1085
 k-point 52 :   0.1667 0.0833 0.1250  plane waves:    1094
 k-point 53 :   0.2500 0.0833 0.1250  plane waves:    1090
 k-point 54 :   0.3333 0.0833 0.1250  plane waves:    1098
 k-point 55 :   0.4167 0.0833 0.1250  plane waves:    1100
 k-point 56 :   0.5000 0.0833 0.1250  plane waves:    1099
 k-point 57 :  -0.4167 0.0833 0.1250  plane waves:    1099
 k-point 58 :  -0.3333 0.0833 0.1250  plane waves:    1090
 k-point 59 :  -0.2500 0.0833 0.1250  plane waves:    1095
 k-point 60 :  -0.1667 0.0833 0.1250  plane waves:    1087
[...]
 k-point 85 :  -0.4167 0.4167 0.1250  plane waves:    1099
 k-point 86 :   0.5000 0.5000 0.1250  plane waves:    1084
 k-point 87 :   0.0000 0.0000 0.2500  plane waves:    1087
 k-point 88 :   0.0833 0.0000 0.2500  plane waves:    1079
 k-point 89 :   0.1667 0.0000 0.2500  plane waves:    1087
 k-point 90 :   0.2500 0.0000 0.2500  plane waves:    1091
 k-point 91 :   0.3333 0.0000 0.2500  plane waves:    1098
 k-point 92 :   0.4167 0.0000 0.2500  plane waves:    1097
 k-point 93 :   0.5000 0.0000 0.2500  plane waves:    1092
 k-point 94 :   0.0833 0.0833 0.2500  plane waves:    1081
 k-point 95 :   0.1667 0.0833 0.2500  plane waves:    1085
 k-point 96 :   0.2500 0.0833 0.2500  plane waves:    1091
 k-point 97 :   0.3333 0.0833 0.2500  plane waves:    1096
 k-point 98 :   0.4167 0.0833 0.2500  plane waves:    1099
 k-point 99 :   0.5000 0.0833 0.2500  plane waves:    1099
 k-point ** :  -0.4167 0.0833 0.2500  plane waves:    1096
 k-point ** :  -0.3333 0.0833 0.2500  plane waves:    1092
 k-point ** :  -0.2500 0.0833 0.2500  plane waves:    1085
 k-point ** :  -0.1667 0.0833 0.2500  plane waves:    1083
 k-point ** :  -0.0833 0.0833 0.2500  plane waves:    1077
 k-point ** :   0.1667 0.1667 0.2500  plane waves:    1095
 k-point ** :   0.2500 0.1667 0.2500  plane waves:    1097
 k-point ** :   0.3333 0.1667 0.2500  plane waves:    1103
 k-point ** :   0.4167 0.1667 0.2500  plane waves:    1107
 k-point ** :   0.5000 0.1667 0.2500  plane waves:    1103
 k-point ** :  -0.4167 0.1667 0.2500  plane waves:    1099
 k-point ** :  -0.3333 0.1667 0.2500  plane waves:    1092
 k-point ** :  -0.2500 0.1667 0.2500  plane waves:    1085
 k-point ** :  -0.1667 0.1667 0.2500  plane waves:    1086
 k-point ** :   0.2500 0.2500 0.2500  plane waves:    1108
 k-point ** :   0.3333 0.2500 0.2500  plane waves:    1113
 k-point ** :   0.4167 0.2500 0.2500  plane waves:    1112
 k-point ** :   0.5000 0.2500 0.2500  plane waves:    1108
 k-point ** :  -0.4167 0.2500 0.2500  plane waves:    1097
 k-point ** :  -0.3333 0.2500 0.2500  plane waves:    1090
 k-point ** :  -0.2500 0.2500 0.2500  plane waves:    1089
 k-point ** :   0.3333 0.3333 0.2500  plane waves:    1104
 k-point ** :   0.4167 0.3333 0.2500  plane waves:    1111
 k-point ** :   0.5000 0.3333 0.2500  plane waves:    1104
 k-point ** :  -0.4167 0.3333 0.2500  plane waves:    1096
 k-point ** :  -0.3333 0.3333 0.2500  plane waves:    1098
 k-point ** :   0.4167 0.4167 0.2500  plane waves:    1107
 k-point ** :   0.5000 0.4167 0.2500  plane waves:    1100
 k-point ** :  -0.4167 0.4167 0.2500  plane waves:    1096
 k-point ** :   0.5000 0.5000 0.2500  plane waves:    1092
 k-point ** :   0.0000 0.0000 0.3750  plane waves:    1087
 k-point ** :   0.0833 0.0000 0.3750  plane waves:    1078
 k-point ** :   0.1667 0.0000 0.3750  plane waves:    1088
 k-point ** :   0.2500 0.0000 0.3750  plane waves:    1084
 k-point ** :   0.3333 0.0000 0.3750  plane waves:    1091
 k-point ** :   0.4167 0.0000 0.3750  plane waves:    1095
 k-point ** :   0.5000 0.0000 0.3750  plane waves:    1096
 k-point ** :   0.0833 0.0833 0.3750  plane waves:    1080
 k-point ** :   0.1667 0.0833 0.3750  plane waves:    1087
 k-point ** :   0.2500 0.0833 0.3750  plane waves:    1088
 k-point ** :   0.3333 0.0833 0.3750  plane waves:    1097
 k-point ** :   0.4167 0.0833 0.3750  plane waves:    1102
 k-point ** :   0.5000 0.0833 0.3750  plane waves:    1103
 k-point ** :  -0.4167 0.0833 0.3750  plane waves:    1098
 k-point ** :  -0.3333 0.0833 0.3750  plane waves:    1088
 k-point ** :  -0.2500 0.0833 0.3750  plane waves:    1087
 k-point ** :  -0.1667 0.0833 0.3750  plane waves:    1080
 k-point ** :  -0.0833 0.0833 0.3750  plane waves:    1075
 k-point ** :   0.1667 0.1667 0.3750  plane waves:    1085
 k-point ** :   0.2500 0.1667 0.3750  plane waves:    1091
 k-point ** :   0.3333 0.1667 0.3750  plane waves:    1107
 k-point ** :   0.4167 0.1667 0.3750  plane waves:    1106
 k-point ** :   0.5000 0.1667 0.3750  plane waves:    1106
 k-point ** :  -0.4167 0.1667 0.3750  plane waves:    1091
 k-point ** :  -0.3333 0.1667 0.3750  plane waves:    1085
 k-point ** :  -0.2500 0.1667 0.3750  plane waves:    1087
 k-point ** :  -0.1667 0.1667 0.3750  plane waves:    1088
 k-point ** :   0.2500 0.2500 0.3750  plane waves:    1101
 k-point ** :   0.3333 0.2500 0.3750  plane waves:    1111
 k-point ** :   0.4167 0.2500 0.3750  plane waves:    1111
[...]
 k-point ** :   0.3333 0.2500 0.5000  plane waves:    1110
 k-point ** :   0.4167 0.2500 0.5000  plane waves:    1110
 k-point ** :   0.5000 0.2500 0.5000  plane waves:    1106
 k-point ** :  -0.4167 0.2500 0.5000  plane waves:    1096
 k-point ** :  -0.3333 0.2500 0.5000  plane waves:    1086
 k-point ** :  -0.2500 0.2500 0.5000  plane waves:    1082
 k-point ** :   0.3333 0.3333 0.5000  plane waves:    1122
 k-point ** :   0.4167 0.3333 0.5000  plane waves:    1112
 k-point ** :   0.5000 0.3333 0.5000  plane waves:    1104
 k-point ** :  -0.4167 0.3333 0.5000  plane waves:    1094
 k-point ** :  -0.3333 0.3333 0.5000  plane waves:    1086
 k-point ** :   0.4167 0.4167 0.5000  plane waves:    1104
 k-point ** :   0.5000 0.4167 0.5000  plane waves:    1102
 k-point ** :  -0.4167 0.4167 0.5000  plane waves:    1100
 k-point ** :   0.5000 0.5000 0.5000  plane waves:    1100

 maximum and minimum number of plane-waves per node :       383      344

 maximum number of plane-waves:      1122
 maximum index in each direction:
   IXMAX=    5   IYMAX=    4   IZMAX=   12
   IXMIN=   -5   IYMIN=   -5   IZMIN=  -12

 WARNING: aliasing errors must be expected set NGX to  22 to avoid them
 NGY is ok and might be reduce to  20
 NGZ is ok and might be reduce to  50
 aliasing errors are usually negligible using standard VASP settings
 and one can safely disregard these warnings

 parallel 3D FFT for wavefunctions:
    minimum data exchange during FFTs selected (reduces bandwidth)
 parallel 3D FFT for charge:
    minimum data exchange during FFTs selected (reduces bandwidth)

 Broyden mixing: mesh for mixing (old mesh)
   NGX =  9   NGY =  9   NGZ = 25
  (NGX  = 40   NGY  = 40   NGZ  =100)
  gives a total of   2025 points

 initial charge density was supplied:
 charge density of overlapping atoms calculated
 number of electron      16.0000000 magnetization
 keeping initial charge density in first step

 Maximum index for augmentation-charges         1317 (set IRDMAX)

 First call to EWALD:  gamma=   0.554
 Maximum number of real-space cells 4x 4x 2
 Maximum number of reciprocal cells 2x 2x 5

 FEWALD executed in parallel

----------------------------------------- Iteration    1(   1)  ---------------------------------------

 BZINTS: Fermi energy: 14.876965; 16.000000 electrons
         Band energy:  -0.256670;  BLOECHL correction: -0.548848

 eigenvalue-minimisations  :  5168
 total energy-change (2. order) : 0.5331158E+02  (-0.9138579E+03)
 number of electron      16.0000000 magnetization
 augmentation part       16.0000000 magnetization

 Free energy of the ion-electron system (eV)
  alpha Z        PSCENC =        39.71369377
  Ewald energy   TEWEN  =      -504.36466675
  -Hartree energ DENC   =      -121.32051998
  -exchange      EXHF   =         0.00000000
  -V(xc)+E(xc)   XCENC  =        55.54050960
  PAW double counting   =       151.32577238     -155.92769107
  entropy T*S    EENTRO =         0.00000000
  eigenvalues    EBANDS =        -0.25667008
  atomic energy  EATOM  =       588.60115103
  free energy    TOTEN  =        53.31157890 eV

  energy without entropy =       53.31157890  energy(sigma->0) =       53.31157890

[...]

 eigenvalue-minimisations  :  7260
 total energy-change (2. order) :-0.8848257E+02  (-0.8173220E+02)
 number of electron      16.0000000 magnetization
 augmentation part       16.0000000 magnetization

[...]

 Broyden mixing:
  rms(total) = 0.78006E+00    rms(broyden)= 0.77997E+00
  rms(prec ) = 0.13031E+01
  weight for this iteration     100.00

[...]

 eigenvalues of (default mixing * dielectric matrix)
  average eigenvalue GAMMA=   2.0361
  2.0361

[...]

 eigenvalue-minimisations  :  6476
 total energy-change (2. order) : 0.1726023E-06  (-0.5600472E-07)
 number of electron      16.0000002 magnetization
 augmentation part        0.3836352 magnetization

[...]

 Broyden mixing:
  rms(total) = 0.81127E-05    rms(broyden)= 0.81070E-05
  rms(prec ) = 0.10753E-04
  weight for this iteration     100.00

 eigenvalues of (default mixing * dielectric matrix)
  average eigenvalue GAMMA=   1.9390
  3.0323  2.7081  1.9322  2.3997  2.3997  0.9868  1.0266  1.0266

[...]

----------------------------------------- Iteration    1(  14)  ---------------------------------------

 BZINTS: Fermi energy:  5.324815; 16.000000 electrons
         Band energy: -59.894576;  BLOECHL correction: -0.000245

 eigenvalue-minimisations  :  4164
 total energy-change (2. order) :-0.4305207E-08  (-0.1358687E-09)
 number of electron      16.0000002 magnetization
 augmentation part        0.3836347 magnetization

 Free energy of the ion-electron system (eV)
  alpha Z        PSCENC =        39.71369377
  Ewald energy   TEWEN  =      -504.36466675
  -Hartree energ DENC   =      -153.36826029
  -exchange      EXHF   =         0.00000000
  -V(xc)+E(xc)   XCENC  =        57.73667834
  PAW double counting   =       278.04573637     -283.21292339
  entropy T*S    EENTRO =         0.00000000
  eigenvalues    EBANDS =       -59.89457557
  atomic energy  EATOM  =       588.60115103
  free energy    TOTEN  =       -36.74316650 eV

  energy without entropy =      -36.74316650  energy(sigma->0) =      -36.74316650

 average (electrostatic) potential at core
  the test charge radii are     0.6991
  (the norm of the test charge is              1.0000)
       1 -50.0417       2 -50.0417       3 -49.9873       4 -49.9873

 E-fermi :   5.3248     XC(G=0): -10.8101     alpha+bet :-12.2326

 k-point     1 :       0.0000    0.0000    0.0000
  band No.  band energies     occupation
      1     -14.3814      2.00000
      2     -13.8634      2.00000
      3      -3.5014      2.00000
      4      -0.6922      2.00000
      5       2.3498      2.00000
      6       2.3663      2.00000
      7       2.3891      2.00000
      8       2.4044      2.00000
      9      10.3874      0.00000
     10      13.6714      0.00000
     11      13.6785      0.00000
     12      13.7707      0.00000

[...]

 k-point   215 :       0.5000    0.5000    0.5000
  band No.  band energies     occupation
      1      -8.8910      2.00000
      2      -8.8910      2.00000
      3      -7.8415      2.00000
      4      -7.8415      2.00000
      5      -0.9906      2.00000
      6      -0.9906      2.00000
      7       2.9915      2.00000
      8       2.9915      2.00000
      9       6.9911      0.00000
     10       6.9911      0.00000
     11      12.7773      0.00000
     12      12.7773      0.00000

 soft charge-density along one line, spin component           1
         0         1         2         3         4         5         6         7         8         9
 total charge-density along one line

------------------------ aborting loop because EDIFF is reached ----------------------------------------

         DFTD3 V3.0 Rev 1
 IVDW         = 12
 DF pbe
 parameters
 VDW_S6       =    1.0000
 VDW_S8       =    0.7875
 VDW_A1       =    0.4289
 VDW_A2       =    4.4407
 k1-k3        =   16.0000    1.3333   -4.0000
 VDW_RADIUS   =   50.2022 A
 VDW_CNRADIUS =   21.1671 A
 Edisp (eV)   -0.68130

 E6    (eV) :    -0.4864
 E8    (eV) :    -0.1949
 % E8        : 28.61

  FORCE on cell =-STRESS in cart. coord.  units (eV):
  Direction    XX          YY          ZZ          XY          YZ          ZX
  Alpha Z    39.71369    39.71369    39.71369
  Ewald      33.73089    33.66884  -571.76536    -0.05373    -0.00000     0.00000
  Hartree   130.88272   130.88006  -108.39445    -0.00230    -0.00000    -0.00000
  E(xc)     -58.54407   -58.54502   -60.54703    -0.00082     0.00000    -0.00000
  Local    -370.55470  -370.50028   440.75744     0.04713     0.00000     0.00000
  n-local   -14.41658   -13.66336   -12.90201    -0.23367     0.01991    -0.01407
  augment    -1.54830    -1.54820    -1.41837     0.00009    -0.00000     0.00000
  Kinetic   243.92646   236.80791   276.09802     2.14127    -0.25778     0.16975
  Fock        0.00000     0.00000     0.00000     0.00000     0.00000     0.00000
  vdW        -0.07530    -0.07390    -0.76766     0.00121     0.00000     0.00000
  Total      -0.09822    -0.04724     0.77426     0.04414    -0.00000    -0.00000
  in kB      -4.79374    -2.30586    37.78893     2.15456    -0.00000    -0.00000

 VOLUME and BASIS-vectors are now :
  energy-cutoff  :      600.00
  volume of cell :       32.83
      direct lattice vectors                 reciprocal lattice vectors
     2.466437249 -0.000959643  0.000000000     0.405534294  0.234345762  0.000000000
    -1.234049700  2.135517493  0.000000000     0.000182236  0.468375882  0.000000000
     0.000000000  0.000000000  6.233845684     0.000000000  0.000000000  0.160414622

  length of vectors
     2.466437436  2.466437436  6.233845684     0.468375917  0.468375917  0.160414622

 FORCES acting on ions
    electron-ion (+dipol)            ewald-force                    non-local-force                 convergence-correction
   -.114E+00 0.658E-01 0.962E-12   0.106E+00 -.615E-01 -.172E-13   -.593E-02 0.342E-02 0.867E-18   0.404E-06 -.233E-06 0.225E-13
   0.114E+00 -.658E-01 0.249E-12   -.107E+00 0.615E-01 0.172E-13   0.593E-02 -.342E-02 -.867E-18   -.404E-06 0.233E-06 -.565E-13
   0.105E+00 -.606E-01 0.104E-11   -.106E+00 0.609E-01 -.172E-13   0.216E-02 -.125E-02 0.130E-17   -.813E-06 0.470E-06 0.209E-13
   -.105E+00 0.606E-01 -.653E-12   0.106E+00 -.609E-01 0.172E-13   -.216E-02 0.125E-02 0.130E-17   0.813E-06 -.470E-06 -.568E-13
   -.677E-05 -.117E-04 0.160E-11   0.541E-15 0.347E-14 0.000E+00   -.167E-15 0.000E+00 0.260E-17   -.344E-11 -.596E-11 -.699E-13

 POSITION                                       TOTAL-FORCE (eV/Angst)
      2.46402      0.00044      1.55846        -0.013412      0.007744     -0.000000
     -1.23163      2.13412      4.67538         0.013412     -0.007744     -0.000000
     -0.00332      1.42496      1.55846         0.001720     -0.000993     -0.000000
      1.23571      0.70960      4.67538        -0.001720      0.000993      0.000000
    total drift:                               -0.000007     -0.000012      0.000000

  FREE ENERGIE OF THE ION-ELECTRON SYSTEM (eV)
  free  energy   TOTEN  =       -37.42446330 eV

  energy  without entropy=      -37.42446330  energy(sigma->0) =      -37.42446330

 reached required accuracy - stopping structural energy minimisation
 BZINTS: Fermi energy:  5.324815; 16.000000 electrons
         Band energy: -59.894576;  BLOECHL correction: -0.000245