 vasp.5.3.5 31Mar14 (build Nov 02 2014 15:17:37) complex

 executed on        ion-Intel-MKL date 2016.08.27  00:10:42

 INCAR:
 POTCAR:   PAW_PBE C 08Apr2002
 POTCAR:   PAW_PBE C 08Apr2002
   VRHFIN =C: s2p2

   TITEL  = PAW_PBE C 08Apr2002
   POMASS =   12.011; ZVAL   =    4.000    mass and valenz
   ENMAX  =  400.000; ENMIN  =  300.000 eV
   QCUT   =   -5.516; QGAM   =   11.032    optimization parameters

   Description
     l     E      TYP  RCUT    TYP  RCUT
     0   .000     23  1.200
     0   .000     23  1.200
     1   .000     23  1.500
     1  2.500     23  1.500
     2   .000      7  1.500

 PAW_PBE C 08Apr2002                    :

 POSCAR: CIF file
  positions in direct lattice
  velocities in cartesian coordinates
 exchange correlation table for  LEXCH =        8
   RHO(1)=    0.500       N(1)  =     2000
   RHO(2)=  100.500       N(2)  =     4000

 ion  position               nearest neighbor table
   1  0.999  0.001  0.250-   3 1.42   3 1.42   3 1.42   2 1.66   2 1.66
   2  0.001  0.999  0.750-   4 1.42   4 1.42   4 1.42   1 1.66   1 1.66
   3  0.333  0.667  0.250-   1 1.42   1 1.42   1 1.42
   4  0.667  0.333  0.750-   2 1.42   2 1.42   2 1.42

  LATTYP: Found a base centered orthorhombic cell.
 ALAT       =     2.4647750986
 B/A-ratio  =     1.7336081796
 C/A-ratio  =     1.3453054463

  Lattice vectors:

 A1 = (   2.4664372490,  -0.0009596430,   0.0000000000)
 A2 = (  -1.2340496996,   2.1355174929,   0.0000000000)
 A3 = (   0.0000000000,   0.0000000000,   3.3158753641)

Analysis of symmetry for initial positions (statically):
 Subroutine PRICEL returns:
 Original cell was already a primitive cell.

 Routine SETGRP: Setting up the symmetry group for a
 base centered orthorhombic supercell.

 Subroutine GETGRP returns: Found  8 space group operations
 (whereof  4 operations were pure point group operations)
 out of a pool of  8 trial point group operations.

The static configuration has the point symmetry C_2h.
 The point group associated with its full space group is D_2h.

Analysis of symmetry for dynamics (positions and initial velocities):
 Subroutine PRICEL returns:
 Original cell was already a primitive cell.

 Routine SETGRP: Setting up the symmetry group for a
 base centered orthorhombic supercell.

 Subroutine GETGRP returns: Found  8 space group operations
 (whereof  4 operations were pure point group operations)
 out of a pool of  8 trial point group operations.

The dynamic configuration has the point symmetry C_2h.
 The point group associated with its full space group is D_2h.

 KPOINTS: B4C B11C-CBC

Automatic generation of k-mesh.
Space group operators:
 irot       det(A)        alpha          n_x          n_y          n_z        tau_x        tau_y        tau_z
    1     1.000000     0.000000     1.000000     0.000000     0.000000     0.000000     0.000000     0.000000
    2    -1.000000     0.000000     1.000000     0.000000     0.000000     0.000000     0.000000     0.000000
    3     1.000000   180.000000    -0.500000    -0.866025     0.000000     0.000000     0.000000     0.000000
    4    -1.000000   180.000000    -0.500000    -0.866025     0.000000     0.000000     0.000000     0.000000
    5     1.000000   179.999999     0.000000     0.000000     1.000000     0.000000     0.000000     0.500000
    6    -1.000000   179.999999     0.000000     0.000000     1.000000     0.000000     0.000000     0.500000
    7     1.000000   180.000000     0.866025    -0.500000     0.000000     0.000000     0.000000     0.500000
    8    -1.000000   180.000000     0.866025    -0.500000     0.000000     0.000000     0.000000     0.500000

 Subroutine IBZKPT returns following result:

 Found    455 irreducible k-points:

 Following reciprocal coordinates:
            Coordinates               Weight
  0.000000  0.000000  0.000000      1.000000
  0.055556  0.000000  0.000000      4.000000
  0.111111  0.000000  0.000000      4.000000
  0.166667  0.000000  0.000000      4.000000
  0.222222  0.000000  0.000000      4.000000
  0.277778  0.000000  0.000000      4.000000
  0.333333  0.000000  0.000000      4.000000
  0.388889  0.000000  0.000000      4.000000
  0.444444  0.000000  0.000000      4.000000
  0.500000  0.000000  0.000000      2.000000
  0.055556  0.055556  0.000000      2.000000
  0.111111  0.055556  0.000000      4.000000
  0.166667  0.055556  0.000000      4.000000
  0.222222  0.055556  0.000000      4.000000
  0.277778  0.055556  0.000000      4.000000
  0.333333  0.055556  0.000000      4.000000
  0.388889  0.055556  0.000000      4.000000
  0.444444  0.055556  0.000000      4.000000
  0.500000  0.055556  0.000000      4.000000
 -0.444444  0.055556  0.000000      4.000000
 -0.388889  0.055556  0.000000      4.000000
 -0.333333  0.055556  0.000000      4.000000
 -0.277778  0.055556  0.000000      4.000000
 -0.222222  0.055556  0.000000      4.000000
 -0.166667  0.055556  0.000000      4.000000
 -0.111111  0.055556  0.000000      4.000000
 -0.055556  0.055556  0.000000      2.000000
  0.111111  0.111111  0.000000      2.000000
  0.166667  0.111111  0.000000      4.000000
  0.222222  0.111111  0.000000      4.000000
  0.277778  0.111111  0.000000      4.000000
  0.333333  0.111111  0.000000      4.000000
  0.388889  0.111111  0.000000      4.000000
  0.444444  0.111111  0.000000      4.000000
  0.500000  0.111111  0.000000      4.000000
 -0.444444  0.111111  0.000000      4.000000
 -0.388889  0.111111  0.000000      4.000000
 -0.333333  0.111111  0.000000      4.000000
 -0.277778  0.111111  0.000000      4.000000
 -0.222222  0.111111  0.000000      4.000000
 -0.166667  0.111111  0.000000      4.000000
 -0.111111  0.111111  0.000000      2.000000
  0.166667  0.166667  0.000000      2.000000
  0.222222  0.166667  0.000000      4.000000
  0.277778  0.166667  0.000000      4.000000
  0.333333  0.166667  0.000000      4.000000
  0.388889  0.166667  0.000000      4.000000
  0.444444  0.166667  0.000000      4.000000
  0.500000  0.166667  0.000000      4.000000
 -0.444444  0.166667  0.000000      4.000000
 -0.388889  0.166667  0.000000      4.000000
 -0.333333  0.166667  0.000000      4.000000
 -0.277778  0.166667  0.000000      4.000000
 -0.222222  0.166667  0.000000      4.000000
 -0.166667  0.166667  0.000000      2.000000
  0.222222  0.222222  0.000000      2.000000
  0.277778  0.222222  0.000000      4.000000
  0.333333  0.222222  0.000000      4.000000
  0.388889  0.222222  0.000000      4.000000
  0.444444  0.222222  0.000000      4.000000
[...]
  0.388889  0.333333  0.500000      4.000000
  0.444444  0.333333  0.500000      4.000000
  0.500000  0.333333  0.500000      4.000000
 -0.444444  0.333333  0.500000      4.000000
 -0.388889  0.333333  0.500000      4.000000
 -0.333333  0.333333  0.500000      2.000000
  0.388889  0.388889  0.500000      2.000000
  0.444444  0.388889  0.500000      4.000000
  0.500000  0.388889  0.500000      4.000000
 -0.444444  0.388889  0.500000      4.000000
 -0.388889  0.388889  0.500000      2.000000
  0.444444  0.444444  0.500000      2.000000
  0.500000  0.444444  0.500000      4.000000
 -0.444444  0.444444  0.500000      2.000000
  0.500000  0.500000  0.500000      1.000000

 Following cartesian coordinates:
            Coordinates               Weight
  0.000000  0.000000  0.000000      1.000000
  0.022530  0.013019  0.000000      4.000000
  0.045059  0.026038  0.000000      4.000000
  0.067589  0.039058  0.000000      4.000000
  0.090119  0.052077  0.000000      4.000000
  0.112648  0.065096  0.000000      4.000000
  0.135178  0.078115  0.000000      4.000000
  0.157708  0.091134  0.000000      4.000000
  0.180237  0.104154  0.000000      4.000000
  0.202767  0.117173  0.000000      2.000000
  0.022540  0.039040  0.000000      2.000000
  0.045069  0.052059  0.000000      4.000000
  0.067599  0.065079  0.000000      4.000000
  0.090129  0.078098  0.000000      4.000000
  0.112659  0.091117  0.000000      4.000000
  0.135188  0.104136  0.000000      4.000000
  0.157718  0.117155  0.000000      4.000000
  0.180248  0.130175  0.000000      4.000000
  0.202777  0.143194  0.000000      4.000000
 -0.180227 -0.078133  0.000000      4.000000
 -0.157698 -0.065114  0.000000      4.000000
 -0.135168 -0.052094  0.000000      4.000000
 -0.112638 -0.039075  0.000000      4.000000
 -0.090109 -0.026056  0.000000      4.000000
 -0.067579 -0.013037  0.000000      4.000000
 -0.045049 -0.000018  0.000000      4.000000
 -0.022520  0.013002  0.000000      2.000000
  0.045080  0.078080  0.000000      2.000000
  0.067609  0.091099  0.000000      4.000000
  0.090139  0.104119  0.000000      4.000000
  0.112669  0.117138  0.000000      4.000000
  0.135198  0.130157  0.000000      4.000000
  0.157728  0.143176  0.000000      4.000000
  0.180258  0.156195  0.000000      4.000000
  0.202787  0.169215  0.000000      4.000000
 -0.180217 -0.052112  0.000000      4.000000
 -0.157688 -0.039093  0.000000      4.000000
 -0.135158 -0.026073  0.000000      4.000000
 -0.112628 -0.013054  0.000000      4.000000
 -0.090098 -0.000035  0.000000      4.000000
 -0.067569  0.012984  0.000000      4.000000
 -0.045039  0.026003  0.000000      2.000000
  0.067619  0.117120  0.000000      2.000000
  0.090149  0.130139  0.000000      4.000000
  0.112679  0.143159  0.000000      4.000000
  0.135208  0.156178  0.000000      4.000000
  0.157738  0.169197  0.000000      4.000000
  0.180268  0.182216  0.000000      4.000000
  0.202798  0.195236  0.000000      4.000000
 -0.180207 -0.026091  0.000000      4.000000
 -0.157677 -0.013072  0.000000      4.000000
 -0.135148 -0.000053  0.000000      4.000000
 -0.112618  0.012967  0.000000      4.000000
 -0.090088  0.025986  0.000000      4.000000
 -0.067559  0.039005  0.000000      2.000000
  0.090159  0.156160  0.000000      2.000000
  0.112689  0.169180  0.000000      4.000000
  0.135219  0.182199  0.000000      4.000000
  0.157748  0.195218  0.000000      4.000000
  0.180278  0.208237  0.000000      4.000000
[...]
  0.157769  0.247260  0.150790      4.000000
  0.180298  0.260279  0.150790      4.000000
  0.202828  0.273298  0.150790      4.000000
 -0.180177  0.051972  0.150790      4.000000
 -0.157647  0.064991  0.150790      4.000000
 -0.135117  0.078010  0.150790      2.000000
  0.157779  0.273281  0.150790      2.000000
  0.180308  0.286300  0.150790      4.000000
  0.202838  0.299319  0.150790      4.000000
 -0.180167  0.077993  0.150790      4.000000
 -0.157637  0.091012  0.150790      2.000000
  0.180318  0.312321  0.150790      2.000000
  0.202848  0.325340  0.150790      4.000000
 -0.180156  0.104013  0.150790      2.000000
  0.202858  0.351361  0.150790      1.000000

 TETIRR: Found   3888 inequivalent tetrahedra from    15552

 I would recommend the setting:
   dimension x,y,z NGX =    20 NGY =   20 NGZ =   26
 SYSTEM =  graphite
 POSCAR =  CIF file

 Startparameter for this run:
   NWRITE =      2    write-flag & timer
   PREC   = accura    normal or accurate (medium, high low for compatibility)
   ISTART =      0    job   : 0-new  1-cont  2-samecut
   ICHARG =      2    charge: 1-file 2-atom 10-const
   ISPIN  =      1    spin polarized calculation?
   LNONCOLLINEAR =      F non collinear calculations
[...]
 k-point 28 :   0.1111 0.1111 0.0000  plane waves:     577
 k-point 29 :   0.1667 0.1111 0.0000  plane waves:     582
 k-point 30 :   0.2222 0.1111 0.0000  plane waves:     583
 k-point 31 :   0.2778 0.1111 0.0000  plane waves:     584
 k-point 32 :   0.3333 0.1111 0.0000  plane waves:     585
 k-point 33 :   0.3889 0.1111 0.0000  plane waves:     585
 k-point 34 :   0.4444 0.1111 0.0000  plane waves:     583
 k-point 35 :   0.5000 0.1111 0.0000  plane waves:     585
 k-point 36 :  -0.4444 0.1111 0.0000  plane waves:     585
 k-point 37 :  -0.3889 0.1111 0.0000  plane waves:     586
 k-point 38 :  -0.3333 0.1111 0.0000  plane waves:     583
 k-point 39 :  -0.2778 0.1111 0.0000  plane waves:     582
 k-point 40 :  -0.2222 0.1111 0.0000  plane waves:     577
 k-point 41 :  -0.1667 0.1111 0.0000  plane waves:     578
 k-point 42 :  -0.1111 0.1111 0.0000  plane waves:     577
 k-point 43 :   0.1667 0.1667 0.0000  plane waves:     583
 k-point 44 :   0.2222 0.1667 0.0000  plane waves:     588
 k-point 45 :   0.2778 0.1667 0.0000  plane waves:     589
 k-point 46 :   0.3333 0.1667 0.0000  plane waves:     591
 k-point 47 :   0.3889 0.1667 0.0000  plane waves:     587
 k-point 48 :   0.4444 0.1667 0.0000  plane waves:     587
 k-point 49 :   0.5000 0.1667 0.0000  plane waves:     591
 k-point 50 :  -0.4444 0.1667 0.0000  plane waves:     589
 k-point 51 :  -0.3889 0.1667 0.0000  plane waves:     590
 k-point 52 :  -0.3333 0.1667 0.0000  plane waves:     583
 k-point 53 :  -0.2778 0.1667 0.0000  plane waves:     582
 k-point 54 :  -0.2222 0.1667 0.0000  plane waves:     577
 k-point 55 :  -0.1667 0.1667 0.0000  plane waves:     575
 k-point 56 :   0.2222 0.2222 0.0000  plane waves:     589
 k-point 57 :   0.2778 0.2222 0.0000  plane waves:     594
 k-point 58 :   0.3333 0.2222 0.0000  plane waves:     590
 k-point 59 :   0.3889 0.2222 0.0000  plane waves:     587
 k-point 60 :   0.4444 0.2222 0.0000  plane waves:     588
[...]
 k-point 85 :   0.5000 0.3889 0.0000  plane waves:     585
 k-point 86 :  -0.4444 0.3889 0.0000  plane waves:     586
 k-point 87 :  -0.3889 0.3889 0.0000  plane waves:     588
 k-point 88 :   0.4444 0.4444 0.0000  plane waves:     583
 k-point 89 :   0.5000 0.4444 0.0000  plane waves:     580
 k-point 90 :  -0.4444 0.4444 0.0000  plane waves:     586
 k-point 91 :   0.5000 0.5000 0.0000  plane waves:     588
 k-point 92 :   0.0000 0.0000 0.1250  plane waves:     571
 k-point 93 :   0.0556 0.0000 0.1250  plane waves:     573
 k-point 94 :   0.1111 0.0000 0.1250  plane waves:     570
 k-point 95 :   0.1667 0.0000 0.1250  plane waves:     581
 k-point 96 :   0.2222 0.0000 0.1250  plane waves:     583
 k-point 97 :   0.2778 0.0000 0.1250  plane waves:     577
 k-point 98 :   0.3333 0.0000 0.1250  plane waves:     579
 k-point 99 :   0.3889 0.0000 0.1250  plane waves:     585
 k-point ** :   0.4444 0.0000 0.1250  plane waves:     584
 k-point ** :   0.5000 0.0000 0.1250  plane waves:     576
 k-point ** :   0.0556 0.0556 0.1250  plane waves:     570
 k-point ** :   0.1111 0.0556 0.1250  plane waves:     575
 k-point ** :   0.1667 0.0556 0.1250  plane waves:     584
 k-point ** :   0.2222 0.0556 0.1250  plane waves:     583
 k-point ** :   0.2778 0.0556 0.1250  plane waves:     581
 k-point ** :   0.3333 0.0556 0.1250  plane waves:     582
 k-point ** :   0.3889 0.0556 0.1250  plane waves:     584
 k-point ** :   0.4444 0.0556 0.1250  plane waves:     585
 k-point ** :   0.5000 0.0556 0.1250  plane waves:     585
 k-point ** :  -0.4444 0.0556 0.1250  plane waves:     585
 k-point ** :  -0.3889 0.0556 0.1250  plane waves:     581
 k-point ** :  -0.3333 0.0556 0.1250  plane waves:     581
 k-point ** :  -0.2778 0.0556 0.1250  plane waves:     582
 k-point ** :  -0.2222 0.0556 0.1250  plane waves:     583
 k-point ** :  -0.1667 0.0556 0.1250  plane waves:     575
 k-point ** :  -0.1111 0.0556 0.1250  plane waves:     572
 k-point ** :  -0.0556 0.0556 0.1250  plane waves:     573
 k-point ** :   0.1111 0.1111 0.1250  plane waves:     580
 k-point ** :   0.1667 0.1111 0.1250  plane waves:     581
 k-point ** :   0.2222 0.1111 0.1250  plane waves:     581
 k-point ** :   0.2778 0.1111 0.1250  plane waves:     584
 k-point ** :   0.3333 0.1111 0.1250  plane waves:     586
 k-point ** :   0.3889 0.1111 0.1250  plane waves:     586
 k-point ** :   0.4444 0.1111 0.1250  plane waves:     587
 k-point ** :   0.5000 0.1111 0.1250  plane waves:     588
 k-point ** :  -0.4444 0.1111 0.1250  plane waves:     586
 k-point ** :  -0.3889 0.1111 0.1250  plane waves:     584
 k-point ** :  -0.3333 0.1111 0.1250  plane waves:     581
 k-point ** :  -0.2778 0.1111 0.1250  plane waves:     581
 k-point ** :  -0.2222 0.1111 0.1250  plane waves:     580
 k-point ** :  -0.1667 0.1111 0.1250  plane waves:     576
 k-point ** :  -0.1111 0.1111 0.1250  plane waves:     570
 k-point ** :   0.1667 0.1667 0.1250  plane waves:     587
 k-point ** :   0.2222 0.1667 0.1250  plane waves:     586
 k-point ** :   0.2778 0.1667 0.1250  plane waves:     584
 k-point ** :   0.3333 0.1667 0.1250  plane waves:     585
 k-point ** :   0.3889 0.1667 0.1250  plane waves:     585
 k-point ** :   0.4444 0.1667 0.1250  plane waves:     585
 k-point ** :   0.5000 0.1667 0.1250  plane waves:     585
 k-point ** :  -0.4444 0.1667 0.1250  plane waves:     584
 k-point ** :  -0.3889 0.1667 0.1250  plane waves:     586
 k-point ** :  -0.3333 0.1667 0.1250  plane waves:     587
 k-point ** :  -0.2778 0.1667 0.1250  plane waves:     582
 k-point ** :  -0.2222 0.1667 0.1250  plane waves:     584
 k-point ** :  -0.1667 0.1667 0.1250  plane waves:     582
 k-point ** :   0.2222 0.2222 0.1250  plane waves:     587
 k-point ** :   0.2778 0.2222 0.1250  plane waves:     590
 k-point ** :   0.3333 0.2222 0.1250  plane waves:     588
 k-point ** :   0.3889 0.2222 0.1250  plane waves:     588
 k-point ** :   0.4444 0.2222 0.1250  plane waves:     588
 k-point ** :   0.5000 0.2222 0.1250  plane waves:     589
 k-point ** :  -0.4444 0.2222 0.1250  plane waves:     587
 k-point ** :  -0.3889 0.2222 0.1250  plane waves:     586
 k-point ** :  -0.3333 0.2222 0.1250  plane waves:     581
 k-point ** :  -0.2778 0.2222 0.1250  plane waves:     582
 k-point ** :  -0.2222 0.2222 0.1250  plane waves:     583
 k-point ** :   0.2778 0.2778 0.1250  plane waves:     595
 k-point ** :   0.3333 0.2778 0.1250  plane waves:     595
[...]
 k-point ** :   0.3889 0.3333 0.5000  plane waves:     594
 k-point ** :   0.4444 0.3333 0.5000  plane waves:     594
 k-point ** :   0.5000 0.3333 0.5000  plane waves:     590
 k-point ** :  -0.4444 0.3333 0.5000  plane waves:     582
 k-point ** :  -0.3889 0.3333 0.5000  plane waves:     582
 k-point ** :  -0.3333 0.3333 0.5000  plane waves:     576
 k-point ** :   0.3889 0.3889 0.5000  plane waves:     590
 k-point ** :   0.4444 0.3889 0.5000  plane waves:     586
 k-point ** :   0.5000 0.3889 0.5000  plane waves:     588
 k-point ** :  -0.4444 0.3889 0.5000  plane waves:     578
 k-point ** :  -0.3889 0.3889 0.5000  plane waves:     580
 k-point ** :   0.4444 0.4444 0.5000  plane waves:     596
 k-point ** :   0.5000 0.4444 0.5000  plane waves:     588
 k-point ** :  -0.4444 0.4444 0.5000  plane waves:     588
 k-point ** :   0.5000 0.5000 0.5000  plane waves:     588

 maximum and minimum number of plane-waves per node :       216      172

 maximum number of plane-waves:       603
 maximum index in each direction:
   IXMAX=    5   IYMAX=    4   IZMAX=    6
   IXMIN=   -5   IYMIN=   -5   IZMIN=   -7

 WARNING: aliasing errors must be expected set NGX to  22 to avoid them
 NGY is ok and might be reduce to  20
 NGZ is ok and might be reduce to  28
 aliasing errors are usually negligible using standard VASP settings
 and one can safely disregard these warnings

 parallel 3D FFT for wavefunctions:
    minimum data exchange during FFTs selected (reduces bandwidth)
 parallel 3D FFT for charge:
    minimum data exchange during FFTs selected (reduces bandwidth)

 Broyden mixing: mesh for mixing (old mesh)
   NGX =  9   NGY =  9   NGZ = 13
  (NGX  = 40   NGY  = 40   NGZ  = 56)
  gives a total of   1053 points

 initial charge density was supplied:
 charge density of overlapping atoms calculated
 number of electron      16.0000000 magnetization
 keeping initial charge density in first step

 Maximum index for augmentation-charges         1389 (set IRDMAX)

 First call to EWALD:  gamma=   0.683
 Maximum number of real-space cells 3x 3x 2
 Maximum number of reciprocal cells 3x 3x 3

 FEWALD executed in parallel

----------------------------------------- Iteration    1(   1)  ---------------------------------------

 BZINTS: Fermi energy: 22.889646; 16.000000 electrons
         Band energy: 115.018959;  BLOECHL correction: -0.509858

 eigenvalue-minimisations  : 10956
 total energy-change (2. order) : 0.3904533E+02  (-0.9760359E+03)
 number of electron      16.0000000 magnetization
 augmentation part       16.0000000 magnetization

 Free energy of the ion-electron system (eV)
  alpha Z        PSCENC =        74.66174428
  Ewald energy   TEWEN  =      -775.35791930
  -Hartree energ DENC   =       -19.72515696
  -exchange      EXHF   =         0.00000000
  -V(xc)+E(xc)   XCENC  =        60.44847403
  PAW double counting   =       151.32577238     -155.92769107
  entropy T*S    EENTRO =         0.00000000
  eigenvalues    EBANDS =       115.01895856
  atomic energy  EATOM  =       588.60115103
  free energy    TOTEN  =        39.04533296 eV

  energy without entropy =       39.04533296  energy(sigma->0) =       39.04533296

[...]

 eigenvalue-minimisations  : 14352
 total energy-change (2. order) :-0.6374363E+02  (-0.5696649E+02)
 number of electron      16.0000000 magnetization
 augmentation part       16.0000000 magnetization

[...]

 Broyden mixing:
  rms(total) = 0.76779E+00    rms(broyden)= 0.76770E+00
  rms(prec ) = 0.17974E+01
  weight for this iteration     100.00

[...]

 eigenvalues of (default mixing * dielectric matrix)
  average eigenvalue GAMMA=   2.1195
  2.1195

[...]

 eigenvalue-minimisations  : 13896
 total energy-change (2. order) :-0.1001992E-02  (-0.8926034E-03)
 number of electron      15.9999999 magnetization
 augmentation part        0.3973742 magnetization

[...]

 Broyden mixing:
  rms(total) = 0.77469E-03    rms(broyden)= 0.77460E-03
  rms(prec ) = 0.14750E-02
  weight for this iteration     100.00

 eigenvalues of (default mixing * dielectric matrix)
  average eigenvalue GAMMA=   1.8538
  0.9709  1.0497  2.0548  2.7038  2.4897

[...]

----------------------------------------- Iteration    1(  11)  ---------------------------------------

 BZINTS: Fermi energy: 15.921998; 16.000000 electrons
         Band energy:  64.148326;  BLOECHL correction: -0.082691

 eigenvalue-minimisations  :  8728
 total energy-change (2. order) : 0.1407409E-07  (-0.1784996E-06)
 number of electron      15.9999999 magnetization
 augmentation part        0.3975632 magnetization

 Free energy of the ion-electron system (eV)
  alpha Z        PSCENC =        74.66174428
  Ewald energy   TEWEN  =      -775.35791930
  -Hartree energ DENC   =       -33.86947430
  -exchange      EXHF   =         0.00000000
  -V(xc)+E(xc)   XCENC  =        61.89783376
  PAW double counting   =       307.42492020     -312.77191460
  entropy T*S    EENTRO =         0.00000000
  eigenvalues    EBANDS =        64.14832644
  atomic energy  EATOM  =       588.60115103
  free energy    TOTEN  =       -25.26533248 eV

  energy without entropy =      -25.26533248  energy(sigma->0) =      -25.26533248

 average (electrostatic) potential at core
  the test charge radii are     0.6991
  (the norm of the test charge is              1.0000)
       1 -42.0865       2 -42.0865       3 -41.2388       4 -41.2388

 E-fermi :  15.9220     XC(G=0): -14.8174     alpha+bet :-22.9973

 k-point     1 :       0.0000    0.0000    0.0000
  band No.  band energies     occupation
      1     -11.3098      2.00000
      2      -0.6997      2.00000
      3      -0.2217      2.00000
      4       8.3635      2.00000
      5       8.4111      2.00000
      6      11.0082      2.00000
      7      11.0397      2.00000
      8      19.9460      0.00000
      9      20.0476      0.00000
     10      20.4567      0.00000
     11      20.5303      0.00000
     12      20.7735      0.00000

[...]

 k-point   455 :       0.5000    0.5000    0.5000
  band No.  band energies     occupation
      1      -3.0694      2.00000
      2      -3.0694      2.00000
      3      -1.5440      2.00000
      4      -1.5440      2.00000
      5       6.2943      2.00000
      6       6.2943      2.00000
      7      14.6369      2.00000
      8      14.6369      2.00000
      9      15.5602      2.06640
     10      15.5602      1.13827
     11      23.5987      0.00000
     12      23.5987      0.00000

 soft charge-density along one line, spin component           1
         0         1         2         3         4         5         6         7         8         9
 total charge-density along one line

------------------------ aborting loop because EDIFF is reached ----------------------------------------

         DFTD3 V3.0 Rev 1
 IVDW         = 12
 DF pbe
 parameters
 VDW_S6       =    1.0000
 VDW_S8       =    0.7875
 VDW_A1       =    0.4289
 VDW_A2       =    4.4407
 k1-k3        =   16.0000    1.3333   -4.0000
 VDW_RADIUS   =   50.2022 A
 VDW_CNRADIUS =   21.1671 A
 Edisp (eV)   -0.99586

 E6    (eV) :    -0.7094
 E8    (eV) :    -0.2864
 % E8        : 28.76

  FORCE on cell =-STRESS in cart. coord.  units (eV):
  Direction    XX          YY          ZZ          XY          YZ          ZX
  Alpha Z    74.66174    74.66174    74.66174
  Ewald    -227.80578  -228.04373  -319.50921    -0.20607     0.00000     0.00000
  Hartree    13.41778    13.34904     7.10325    -0.05953    -0.00000    -0.00000
  E(xc)     -62.46277   -62.46340   -62.72270    -0.00054     0.00000    -0.00000
  Local     -34.93387   -34.65715    52.49277     0.23965    -0.00000     0.00000
  n-local   -12.23762   -11.98063   -17.33518    -0.07117    -0.39383     0.61897
  augment    -1.66339    -1.66327    -1.55702     0.00011     0.00000    -0.00000
  Kinetic   257.80067   264.13046   313.46427    -1.88713     3.43799    -4.84614
  Fock        0.00000     0.00000     0.00000     0.00000     0.00000     0.00000
  vdW        -1.00706    -1.00701    -1.01973     0.00004     0.00000     0.00000
  Total       9.08770     9.00804    45.57819    -0.06899    -0.00000     0.00000
  in kB     833.85552   826.54640  4182.09500    -6.32988    -0.00000     0.00000

 VOLUME and BASIS-vectors are now :
  energy-cutoff  :      600.00
  volume of cell :       17.46
      direct lattice vectors                 reciprocal lattice vectors
     2.466437249 -0.000959643  0.000000000     0.405534294  0.234345762  0.000000000
    -1.234049700  2.135517493  0.000000000     0.000182236  0.468375882  0.000000000
     0.000000000  0.000000000  3.315875364     0.000000000  0.000000000  0.301579490

  length of vectors
     2.466437436  2.466437436  3.315875364     0.468375917  0.468375917  0.301579490

 FORCES acting on ions
    electron-ion (+dipol)            ewald-force                    non-local-force                 convergence-correction
   0.147E-01 -.850E-02 0.297E-12   -.177E-01 0.102E-01 -.261E-14   -.119E-01 0.688E-02 0.000E+00   -.213E-04 0.123E-04 -.107E-13
   -.147E-01 0.848E-02 0.147E-12   0.177E-01 -.102E-01 0.245E-14   0.119E-01 -.688E-02 0.000E+00   0.213E-04 -.123E-04 0.951E-14
   -.645E-01 0.372E-01 0.746E-12   0.736E-01 -.424E-01 -.543E-14   0.102E-01 -.591E-02 -.260E-17   0.251E-05 -.145E-05 -.110E-13
   0.645E-01 -.372E-01 -.349E-12   -.735E-01 0.425E-01 0.558E-14   -.102E-01 0.591E-02 -.260E-17   -.251E-05 0.145E-05 0.116E-13
   -.865E-05 -.150E-04 0.841E-12   0.888E-15 0.350E-14 0.000E+00   -.111E-15 0.416E-16 -.520E-17   0.512E-09 0.887E-09 -.589E-15

 POSITION                                       TOTAL-FORCE (eV/Angst)
      2.46402      0.00044      0.82897        -0.014956      0.008635     -0.000000
     -1.23163      2.13412      2.48691         0.014956     -0.008635     -0.000000
     -0.00332      1.42496      0.82897         0.019269     -0.011125      0.000000
      1.23571      0.70960      2.48691        -0.019269      0.011125     -0.000000
    total drift:                               -0.000009     -0.000015      0.000000

  FREE ENERGIE OF THE ION-ELECTRON SYSTEM (eV)
  free  energy   TOTEN  =       -26.26119511 eV

  energy  without entropy=      -26.26119511  energy(sigma->0) =      -26.26119511

 reached required accuracy - stopping structural energy minimisation
 BZINTS: Fermi energy: 15.921998; 16.000000 electrons
         Band energy:  64.148326;  BLOECHL correction: -0.082691