 vasp.5.3.5 31Mar14 (build Nov 02 2014 15:17:37) complex

 executed on        ion-Intel-MKL date 2017.02.18  12:29:58

 INCAR:
 POTCAR:   PAW_PBE C 08Apr2002
 POTCAR:   PAW_PBE C 08Apr2002
   VRHFIN =C: s2p2

   TITEL  = PAW_PBE C 08Apr2002
   POMASS =   12.011; ZVAL   =    4.000    mass and valenz
   ENMAX  =  400.000; ENMIN  =  300.000 eV
   QCUT   =   -5.516; QGAM   =   11.032    optimization parameters

   Description
     l     E      TYP  RCUT    TYP  RCUT
     0   .000     23  1.200
     0   .000     23  1.200
     1   .000     23  1.500
     1  2.500     23  1.500
     2   .000      7  1.500

 PAW_PBE C 08Apr2002                    :

 POSCAR: cubic diamond    32%
  positions in direct lattice
 exchange correlation table for  LEXCH =        8
   RHO(1)=    0.500       N(1)  =     2000
   RHO(2)=  100.500       N(2)  =     4000

 ion  position               nearest neighbor table
   1  0.000  0.000  0.000-   2 1.41   2 1.41   2 1.41   2 1.41
   2  0.250  0.250  0.250-   1 1.41   1 1.41   1 1.41   1 1.41

  LATTYP: Found a face centered cubic cell.
 ALAT       =     3.2536539668

  Lattice vectors:

 A1 = (   2.3006807836,   0.0000000000,   0.0000000000)
 A2 = (   1.1503403918,   1.9924480046,   0.0000000000)
 A3 = (   1.1503403918,   0.6641493348,   1.8784979936)

Analysis of symmetry for initial positions (statically):
 Subroutine PRICEL returns:
 Original cell was already a primitive cell.

 Routine SETGRP: Setting up the symmetry group for a
 face centered cubic supercell.

 Subroutine GETGRP returns: Found 48 space group operations
 (whereof 24 operations were pure point group operations)
 out of a pool of 48 trial point group operations.

The static configuration has the point symmetry T_d .
 The point group associated with its full space group is O_h .

Analysis of symmetry for dynamics (positions and initial velocities):
 Subroutine PRICEL returns:
 Original cell was already a primitive cell.

 Routine SETGRP: Setting up the symmetry group for a
 face centered cubic supercell.

 Subroutine GETGRP returns: Found 48 space group operations
 (whereof 24 operations were pure point group operations)
 out of a pool of 48 trial point group operations.

The dynamic configuration has the point symmetry T_d .
 The point group associated with its full space group is O_h .

 KPOINTS: B4C B11C-CBC

Automatic generation of k-mesh.
Space group operators:
 irot       det(A)        alpha          n_x          n_y          n_z        tau_x        tau_y        tau_z
    1     1.000000     0.000000     1.000000     0.000000     0.000000     0.000000     0.000000     0.000000
    2     1.000000   120.000000    -0.816497    -0.471405    -0.333333     0.000000     0.000000     0.000000
    3     1.000000   120.000000     0.816497     0.471405     0.333333     0.000000     0.000000     0.000000
    4    -1.000000    90.000000    -0.707107    -0.408248     0.577350     0.000000     0.000000     0.000000
    5    -1.000000   180.000000     1.000000     0.000000     0.000000     0.000000     0.000000     0.000000
    6    -1.000000    90.000000     0.707107    -0.408248     0.577350     0.000000     0.000000     0.000000
    7     1.000000   180.000000     0.707107     0.408248    -0.577350     0.000000     0.000000     0.000000
    8     1.000000   120.000000     0.816497    -0.471405    -0.333333     0.000000     0.000000     0.000000
    9     1.000000   120.000000    -0.000000    -0.942809     0.333333     0.000000     0.000000     0.000000
   10    -1.000000    90.000000     0.707107     0.408248    -0.577350     0.000000     0.000000     0.000000
   11    -1.000000    90.000000     0.000000    -0.816497    -0.577350     0.000000     0.000000     0.000000
   12    -1.000000   179.999999     0.500000     0.866025     0.000000     0.000000     0.000000     0.000000
   13     1.000000   120.000000    -0.000000     0.942809    -0.333333     0.000000     0.000000     0.000000
   14     1.000000   120.000000    -0.000000     0.000000    -1.000000     0.000000     0.000000     0.000000
   15     1.000000   180.000000     0.000000    -0.816497    -0.577350     0.000000     0.000000     0.000000
   16    -1.000000    90.000000    -0.707107     0.408248    -0.577350     0.000000     0.000000     0.000000
   17    -1.000000   180.000000     0.500000     0.288675     0.816497     0.000000     0.000000     0.000000
   18    -1.000000    90.000000     0.000000     0.816497     0.577350     0.000000     0.000000     0.000000
   19     1.000000   120.000000    -0.816497     0.471405     0.333333     0.000000     0.000000     0.000000
   20     1.000000   180.000000    -0.707107     0.408248    -0.577350     0.000000     0.000000     0.000000
   21     1.000000   120.000000    -0.000000     0.000000     1.000000     0.000000     0.000000     0.000000
   22    -1.000000   180.000000     0.000000    -0.577350     0.816497     0.000000     0.000000     0.000000
   23    -1.000000   180.000000    -0.500000     0.866025     0.000000     0.000000     0.000000     0.000000
   24    -1.000000   180.000000    -0.500000     0.288675     0.816497     0.000000     0.000000     0.000000
   25    -1.000000     0.000000     1.000000     0.000000     0.000000     0.250000     0.250000     0.250000
   26    -1.000000   120.000000    -0.816497    -0.471405    -0.333333     0.250000     0.250000     0.250000
   27    -1.000000   120.000000     0.816497     0.471405     0.333333     0.250000     0.250000     0.250000
   28     1.000000    90.000000    -0.707107    -0.408248     0.577350     0.250000     0.250000     0.250000
   29     1.000000   180.000000     1.000000     0.000000     0.000000     0.250000     0.250000     0.250000
   30     1.000000    90.000000     0.707107    -0.408248     0.577350     0.250000     0.250000     0.250000
   31    -1.000000   180.000000     0.707107     0.408248    -0.577350     0.250000     0.250000     0.250000
   32    -1.000000   120.000000     0.816497    -0.471405    -0.333333     0.250000     0.250000     0.250000
   33    -1.000000   120.000000    -0.000000    -0.942809     0.333333     0.250000     0.250000     0.250000
   34     1.000000    90.000000     0.707107     0.408248    -0.577350     0.250000     0.250000     0.250000
   35     1.000000    90.000000     0.000000    -0.816497    -0.577350     0.250000     0.250000     0.250000
   36     1.000000   179.999999     0.500000     0.866025     0.000000     0.250000     0.250000     0.250000
   37    -1.000000   120.000000    -0.000000     0.942809    -0.333333     0.250000     0.250000     0.250000
   38    -1.000000   120.000000    -0.000000     0.000000    -1.000000     0.250000     0.250000     0.250000
   39    -1.000000   180.000000     0.000000    -0.816497    -0.577350     0.250000     0.250000     0.250000
   40     1.000000    90.000000    -0.707107     0.408248    -0.577350     0.250000     0.250000     0.250000
   41     1.000000   180.000000     0.500000     0.288675     0.816497     0.250000     0.250000     0.250000
   42     1.000000    90.000000     0.000000     0.816497     0.577350     0.250000     0.250000     0.250000
   43    -1.000000   120.000000    -0.816497     0.471405     0.333333     0.250000     0.250000     0.250000
   44    -1.000000   180.000000    -0.707107     0.408248    -0.577350     0.250000     0.250000     0.250000
   45    -1.000000   120.000000    -0.000000     0.000000     1.000000     0.250000     0.250000     0.250000
   46     1.000000   180.000000     0.000000    -0.577350     0.816497     0.250000     0.250000     0.250000
   47     1.000000   180.000000    -0.500000     0.866025     0.000000     0.250000     0.250000     0.250000
   48     1.000000   180.000000    -0.500000     0.288675     0.816497     0.250000     0.250000     0.250000

 Subroutine IBZKPT returns following result:

 Found    194 irreducible k-points:

 Following reciprocal coordinates:
            Coordinates               Weight
  0.000000  0.000000  0.000000      1.000000
  0.083333  0.000000 -0.000000      4.000000
  0.166667 -0.000000 -0.000000      4.000000
  0.250000  0.000000  0.000000      8.000000
  0.333333  0.000000  0.000000      4.000000
  0.416667  0.000000 -0.000000      4.000000
  0.500000  0.000000  0.000000      4.000000
  0.083333  0.083333  0.000000      2.000000
  0.166667  0.083333  0.000000      4.000000
  0.250000  0.083333  0.000000     12.000000
  0.333333  0.083333  0.000000      8.000000
  0.416667  0.083333 -0.000000      4.000000
  0.500000  0.083333  0.000000     12.000000
 -0.416667  0.083333  0.000000      8.000000
 -0.333333  0.083333 -0.000000      4.000000
 -0.250000  0.083333 -0.000000     12.000000
 -0.166667  0.083333  0.000000      8.000000
 -0.083333  0.083333 -0.000000      2.000000
  0.166667  0.166667 -0.000000      2.000000
  0.250000  0.166667  0.000000     12.000000
  0.333333  0.166667  0.000000      4.000000
  0.416667  0.166667  0.000000      8.000000
  0.500000  0.166667  0.000000     12.000000
 -0.416667  0.166667  0.000000      4.000000
 -0.333333  0.166667 -0.000000      8.000000
 -0.250000  0.166667 -0.000000     12.000000
 -0.166667  0.166667  0.000000      2.000000
  0.250000  0.250000  0.000000      6.000000
  0.333333  0.250000  0.000000     12.000000
  0.416667  0.250000  0.000000     12.000000
  0.500000  0.250000  0.000000     24.000000
 -0.416667  0.250000 -0.000000     12.000000
 -0.333333  0.250000 -0.000000     12.000000
 -0.250000  0.250000  0.000000     12.000000
  0.333333  0.333333  0.000000      2.000000
  0.416667  0.333333  0.000000      4.000000
  0.500000  0.333333  0.000000     12.000000
 -0.416667  0.333333 -0.000000      8.000000
 -0.333333  0.333333 -0.000000      2.000000
  0.416667  0.416667  0.000000      2.000000
  0.500000  0.416667  0.000000     12.000000
 -0.416667  0.416667  0.000000      2.000000
  0.500000  0.500000  0.000000      3.000000
  0.000000  0.000000  0.125000      2.000000
  0.083333  0.000000  0.125000      4.000000
  0.166667 -0.000000  0.125000      4.000000
  0.250000  0.000000  0.125000      6.000000
  0.333333  0.000000  0.125000      4.000000
  0.416667  0.000000  0.125000      4.000000
  0.500000  0.000000  0.125000      6.000000
 -0.416667  0.000000  0.125000      4.000000
 -0.333333  0.000000  0.125000      4.000000
 -0.250000  0.000000  0.125000      6.000000
 -0.166667  0.000000  0.125000      4.000000
 -0.083333  0.000000  0.125000      4.000000
  0.083333  0.083333  0.125000      2.000000
  0.166667  0.083333  0.125000      4.000000
  0.250000  0.083333  0.125000      8.000000
  0.333333  0.083333  0.125000      4.000000
  0.416667  0.083333  0.125000      4.000000
[...]
 -0.333333 -0.333333  0.375000      2.000000
 -0.166667 -0.333333  0.375000      4.000000
 -0.083333 -0.333333  0.375000      4.000000
 -0.166667 -0.250000  0.375000      8.000000
 -0.166667 -0.166667  0.375000      2.000000
 -0.083333 -0.166667  0.375000      4.000000
 -0.083333 -0.083333  0.375000      2.000000
  0.166667  0.083333  0.500000      8.000000
  0.416667  0.083333  0.500000      4.000000
 -0.416667  0.083333  0.500000      4.000000
 -0.333333  0.083333  0.500000      8.000000
 -0.083333  0.083333  0.500000      4.000000
[...]
 k-point 12 :   0.4167 0.0833-0.0000  plane waves:     440
 k-point 13 :   0.5000 0.0833 0.0000  plane waves:     445
 k-point 14 :  -0.4167 0.0833 0.0000  plane waves:     445
 k-point 15 :  -0.3333 0.0833-0.0000  plane waves:     441
 k-point 16 :  -0.2500 0.0833-0.0000  plane waves:     449
 k-point 17 :  -0.1667 0.0833 0.0000  plane waves:     453
 k-point 18 :  -0.0833 0.0833-0.0000  plane waves:     441
 k-point 19 :   0.1667 0.1667-0.0000  plane waves:     451
 k-point 20 :   0.2500 0.1667 0.0000  plane waves:     444
 k-point 21 :   0.3333 0.1667 0.0000  plane waves:     442
 k-point 22 :   0.4167 0.1667 0.0000  plane waves:     444
 k-point 23 :   0.5000 0.1667 0.0000  plane waves:     440
 k-point 24 :  -0.4167 0.1667 0.0000  plane waves:     445
 k-point 25 :  -0.3333 0.1667-0.0000  plane waves:     438
 k-point 26 :  -0.2500 0.1667-0.0000  plane waves:     441
 k-point 27 :  -0.1667 0.1667 0.0000  plane waves:     445
 k-point 28 :   0.2500 0.2500 0.0000  plane waves:     456
 k-point 29 :   0.3333 0.2500 0.0000  plane waves:     443
 k-point 30 :   0.4167 0.2500 0.0000  plane waves:     445
 k-point 31 :   0.5000 0.2500 0.0000  plane waves:     447
 k-point 32 :  -0.4167 0.2500-0.0000  plane waves:     447
 k-point 33 :  -0.3333 0.2500-0.0000  plane waves:     439
 k-point 34 :  -0.2500 0.2500 0.0000  plane waves:     435
 k-point 35 :   0.3333 0.3333 0.0000  plane waves:     444
 k-point 36 :   0.4167 0.3333 0.0000  plane waves:     444
 k-point 37 :   0.5000 0.3333 0.0000  plane waves:     445
 k-point 38 :  -0.4167 0.3333-0.0000  plane waves:     443
 k-point 39 :  -0.3333 0.3333-0.0000  plane waves:     443
 k-point 40 :   0.4167 0.4167 0.0000  plane waves:     452
 k-point 41 :   0.5000 0.4167 0.0000  plane waves:     450
 k-point 42 :  -0.4167 0.4167 0.0000  plane waves:     440
 k-point 43 :   0.5000 0.5000 0.0000  plane waves:     444
 k-point 44 :   0.0000 0.0000 0.1250  plane waves:     450
 k-point 45 :   0.0833 0.0000 0.1250  plane waves:     445
 k-point 46 :   0.1667-0.0000 0.1250  plane waves:     447
 k-point 47 :   0.2500 0.0000 0.1250  plane waves:     447
 k-point 48 :   0.3333 0.0000 0.1250  plane waves:     443
 k-point 49 :   0.4167 0.0000 0.1250  plane waves:     443
 k-point 50 :   0.5000 0.0000 0.1250  plane waves:     443
 k-point 51 :  -0.4167 0.0000 0.1250  plane waves:     445
 k-point 52 :  -0.3333 0.0000 0.1250  plane waves:     442
 k-point 53 :  -0.2500 0.0000 0.1250  plane waves:     447
 k-point 54 :  -0.1667 0.0000 0.1250  plane waves:     451
 k-point 55 :  -0.0833 0.0000 0.1250  plane waves:     449
 k-point 56 :   0.0833 0.0833 0.1250  plane waves:     438
 k-point 57 :   0.1667 0.0833 0.1250  plane waves:     447
 k-point 58 :   0.2500 0.0833 0.1250  plane waves:     452
 k-point 59 :   0.3333 0.0833 0.1250  plane waves:     448
 k-point 60 :   0.4167 0.0833 0.1250  plane waves:     439
[...]
 k-point 85 :  -0.2500 0.3333 0.1250  plane waves:     436
 k-point 86 :  -0.1667 0.3333 0.1250  plane waves:     439
 k-point 87 :  -0.0833 0.3333 0.1250  plane waves:     442
 k-point 88 :   0.4167 0.4167 0.1250  plane waves:     442
 k-point 89 :   0.5000 0.4167 0.1250  plane waves:     445
 k-point 90 :  -0.4167 0.4167 0.1250  plane waves:     440
 k-point 91 :  -0.3333 0.4167 0.1250  plane waves:     440
 k-point 92 :  -0.2500 0.4167 0.1250  plane waves:     440
 k-point 93 :  -0.1667 0.4167 0.1250  plane waves:     435
 k-point 94 :  -0.0833 0.4167 0.1250  plane waves:     440
 k-point 95 :   0.5000 0.5000 0.1250  plane waves:     450
 k-point 96 :  -0.4167 0.5000 0.1250  plane waves:     447
 k-point 97 :  -0.3333 0.5000 0.1250  plane waves:     441
 k-point 98 :  -0.2500 0.5000 0.1250  plane waves:     439
 k-point 99 :  -0.1667 0.5000 0.1250  plane waves:     439
 k-point ** :  -0.0833 0.5000 0.1250  plane waves:     441
 k-point ** :  -0.4167-0.4167 0.1250  plane waves:     447
 k-point ** :  -0.3333-0.4167 0.1250  plane waves:     445
 k-point ** :  -0.2500-0.4167 0.1250  plane waves:     441
 k-point ** :  -0.1667-0.4167 0.1250  plane waves:     441
 k-point ** :  -0.0833-0.4167 0.1250  plane waves:     437
 k-point ** :  -0.3333-0.3333 0.1250  plane waves:     443
 k-point ** :  -0.2500-0.3333 0.1250  plane waves:     444
 k-point ** :  -0.1667-0.3333 0.1250  plane waves:     441
 k-point ** :  -0.0833-0.3333 0.1250  plane waves:     440
 k-point ** :  -0.2500-0.2500 0.1250  plane waves:     443
 k-point ** :  -0.1667-0.2500 0.1250  plane waves:     444
 k-point ** :  -0.0833-0.2500 0.1250  plane waves:     446
 k-point ** :  -0.1667-0.1667 0.1250  plane waves:     442
 k-point ** :  -0.0833-0.1667 0.1250  plane waves:     447
 k-point ** :  -0.0833-0.0833 0.1250  plane waves:     452
 k-point ** :   0.1667 0.0833 0.2500  plane waves:     453
 k-point ** :   0.3333 0.0833 0.2500  plane waves:     449
 k-point ** :   0.4167 0.0833 0.2500  plane waves:     444
 k-point ** :   0.5000 0.0833 0.2500  plane waves:     439
 k-point ** :  -0.4167 0.0833 0.2500  plane waves:     441
 k-point ** :  -0.3333 0.0833 0.2500  plane waves:     437
 k-point ** :  -0.2500 0.0833 0.2500  plane waves:     436
 k-point ** :  -0.1667 0.0833 0.2500  plane waves:     437
 k-point ** :  -0.0833 0.0833 0.2500  plane waves:     447
 k-point ** :   0.4167 0.3333 0.2500  plane waves:     440
 k-point ** :  -0.4167 0.3333 0.2500  plane waves:     436
 k-point ** :  -0.3333 0.3333 0.2500  plane waves:     441
 k-point ** :  -0.2500 0.3333 0.2500  plane waves:     440
 k-point ** :  -0.1667 0.3333 0.2500  plane waves:     442
 k-point ** :  -0.0833 0.3333 0.2500  plane waves:     443
 k-point ** :  -0.4167 0.4167 0.2500  plane waves:     441
 k-point ** :  -0.3333 0.4167 0.2500  plane waves:     444
 k-point ** :  -0.2500 0.4167 0.2500  plane waves:     441
 k-point ** :  -0.1667 0.4167 0.2500  plane waves:     444
 k-point ** :  -0.2500 0.5000 0.2500  plane waves:     444
 k-point ** :  -0.3333-0.4167 0.2500  plane waves:     441
 k-point ** :   0.0000 0.0000 0.3750  plane waves:     431
 k-point ** :   0.0833 0.0000 0.3750  plane waves:     443
 k-point ** :   0.1667-0.0000 0.3750  plane waves:     444
 k-point ** :   0.3333 0.0000 0.3750  plane waves:     444
 k-point ** :   0.4167 0.0000 0.3750  plane waves:     449
 k-point ** :  -0.4167 0.0000 0.3750  plane waves:     435
 k-point ** :  -0.3333 0.0000 0.3750  plane waves:     442
 k-point ** :  -0.2500 0.0000 0.3750  plane waves:     447
 k-point ** :  -0.1667 0.0000 0.3750  plane waves:     445
 k-point ** :  -0.0833 0.0000 0.3750  plane waves:     439
 k-point ** :   0.0833 0.0833 0.3750  plane waves:     445
 k-point ** :   0.1667 0.0833 0.3750  plane waves:     442
 k-point ** :   0.3333 0.0833 0.3750  plane waves:     441
 k-point ** :   0.4167 0.0833 0.3750  plane waves:     442
 k-point ** :  -0.4167 0.0833 0.3750  plane waves:     441
 k-point ** :  -0.3333 0.0833 0.3750  plane waves:     446
 k-point ** :  -0.2500 0.0833 0.3750  plane waves:     442
 k-point ** :  -0.1667 0.0833 0.3750  plane waves:     436
 k-point ** :  -0.0833 0.0833 0.3750  plane waves:     441
 k-point ** :   0.1667 0.1667 0.3750  plane waves:     445
 k-point ** :   0.3333 0.1667 0.3750  plane waves:     445
 k-point ** :   0.4167 0.1667 0.3750  plane waves:     446
 k-point ** :  -0.4167 0.1667 0.3750  plane waves:     443
[...]
 k-point ** :  -0.3333-0.3333 0.3750  plane waves:     441
 k-point ** :  -0.1667-0.3333 0.3750  plane waves:     440
 k-point ** :  -0.0833-0.3333 0.3750  plane waves:     442
 k-point ** :  -0.1667-0.2500 0.3750  plane waves:     439
 k-point ** :  -0.1667-0.1667 0.3750  plane waves:     444
 k-point ** :  -0.0833-0.1667 0.3750  plane waves:     443
 k-point ** :  -0.0833-0.0833 0.3750  plane waves:     441
 k-point ** :   0.1667 0.0833 0.5000  plane waves:     439
 k-point ** :   0.4167 0.0833 0.5000  plane waves:     446
 k-point ** :  -0.4167 0.0833 0.5000  plane waves:     446
 k-point ** :  -0.3333 0.0833 0.5000  plane waves:     443
 k-point ** :  -0.0833 0.0833 0.5000  plane waves:     446
 k-point ** :   0.3333 0.1667 0.5000  plane waves:     443
 k-point ** :  -0.3333 0.1667 0.5000  plane waves:     444
 k-point ** :  -0.1667 0.1667 0.5000  plane waves:     434

 maximum and minimum number of plane-waves per node :       459      431

 maximum number of plane-waves:       459
 maximum index in each direction:
   IXMAX=    5   IYMAX=    5   IZMAX=    5
   IXMIN=   -5   IYMIN=   -5   IZMIN=   -5

 NGX is ok and might be reduce to  22
 NGY is ok and might be reduce to  22
 NGZ is ok and might be reduce to  22

 serial   3D FFT for wavefunctions
 parallel 3D FFT for charge:
    minimum data exchange during FFTs selected (reduces bandwidth)

 Broyden mixing: mesh for mixing (old mesh)
   NGX = 11   NGY = 11   NGZ = 11
  (NGX  = 48   NGY  = 48   NGZ  = 48)
  gives a total of   1331 points

 initial charge density was supplied:
 charge density of overlapping atoms calculated
 number of electron       8.0000000 magnetization
 keeping initial charge density in first step

 Maximum index for augmentation-charges        18245 (set IRDMAX)

 First call to EWALD:  gamma=   0.865
 Maximum number of real-space cells 3x 3x 3
 Maximum number of reciprocal cells 3x 3x 3

 FEWALD executed in parallel

----------------------------------------- Iteration    1(   1)  ---------------------------------------

 BZINTS: Fermi energy: 23.072680;  8.000000 electrons
         Band energy:  43.318184;  BLOECHL correction: -0.270149

 eigenvalue-minimisations  :  3184
 total energy-change (2. order) : 0.1011287E+02  (-0.7116921E+03)
 number of electron       8.0000000 magnetization
 augmentation part        8.0000000 magnetization

 Free energy of the ion-electron system (eV)
  alpha Z        PSCENC =        37.84929447
  Ewald energy   TEWEN  =      -381.44804365
  -Hartree energ DENC   =       -12.12999094
  -exchange      EXHF   =         0.00000000
  -V(xc)+E(xc)   XCENC  =        30.51554042
  PAW double counting   =        75.66288619      -77.96384553
  entropy T*S    EENTRO =         0.00000000
  eigenvalues    EBANDS =        43.31818380
  atomic energy  EATOM  =       294.30884690
  free energy    TOTEN  =        10.11287165 eV

  energy without entropy =       10.11287165  energy(sigma->0) =       10.11287165

[...]

 eigenvalue-minimisations  :  4632
 total energy-change (2. order) :-0.2806922E+02  (-0.2763219E+02)
 number of electron       8.0000000 magnetization
 augmentation part        8.0000000 magnetization

[...]

 Broyden mixing:
  rms(total) = 0.65880E+00    rms(broyden)= 0.65880E+00
  rms(prec ) = 0.26695E+01
  weight for this iteration     100.00

[...]

 eigenvalues of (default mixing * dielectric matrix)
  average eigenvalue GAMMA=   2.0876
  2.0876

[...]

 eigenvalue-minimisations  :  3480
 total energy-change (2. order) :-0.4669097E-05  (-0.4405787E-06)
 number of electron       8.0000000 magnetization
 augmentation part        0.2425193 magnetization

[...]

 Broyden mixing:
  rms(total) = 0.42549E-05    rms(broyden)= 0.42539E-05
  rms(prec ) = 0.16915E-04
  weight for this iteration     100.00

 eigenvalues of (default mixing * dielectric matrix)
  average eigenvalue GAMMA=   1.8789
  2.8341  2.0481  2.6158  2.5106  0.9813  1.0435  1.1187

[...]

----------------------------------------- Iteration    1(  13)  ---------------------------------------

 BZINTS: Fermi energy: 14.197749;  8.000000 electrons
         Band energy:  26.495669;  BLOECHL correction:  0.000000

 eigenvalue-minimisations  :  1552
 total energy-change (2. order) : 0.1117655E-08  (-0.1295049E-10)
 number of electron       8.0000000 magnetization
 augmentation part        0.2425158 magnetization

 Free energy of the ion-electron system (eV)
  alpha Z        PSCENC =        37.84929447
  Ewald energy   TEWEN  =      -381.44804365
  -Hartree energ DENC   =       -22.77523781
  -exchange      EXHF   =         0.00000000
  -V(xc)+E(xc)   XCENC  =        31.53977933
  PAW double counting   =       175.83743957     -178.58370486
  entropy T*S    EENTRO =         0.00000000
  eigenvalues    EBANDS =        26.49566854
  atomic energy  EATOM  =       294.30884690
  free energy    TOTEN  =       -16.77595750 eV

  energy without entropy =      -16.77595750  energy(sigma->0) =      -16.77595750

 average (electrostatic) potential at core
  the test charge radii are     0.6991
  (the norm of the test charge is              1.0000)
       1 -41.1943       2 -41.1943

 E-fermi :  14.1977     XC(G=0): -14.6464     alpha+bet :-23.3166

 k-point     1 :       0.0000    0.0000    0.0000
  band No.  band energies     occupation
      1     -11.3696      2.00000
      2      14.1809      2.00000
      3      14.1809      2.00000
      4      14.1809      2.00000
      5      20.5380      0.00000
      6      20.5380      0.00000
      7      20.5380      0.00000
      8      34.3388      0.00000

[...]

 k-point   194 :      -0.1667    0.1667    0.5000
  band No.  band energies     occupation
      1      -1.7536      2.00000
      2      -0.2989      2.00000
      3       4.6258      2.00000
      4       6.3765      2.00000
      5      23.8723      0.00000
      6      26.5378      0.00000
      7      31.9169      0.00000
      8      32.0620      0.00000

 soft charge-density along one line, spin component           1
         0         1         2         3         4         5         6         7         8         9
 total charge-density along one line

------------------------ aborting loop because EDIFF is reached ----------------------------------------

         DFTD3 V3.0 Rev 1
 IVDW         = 12
 DF pbe
 parameters
 VDW_S6       =    1.0000
 VDW_S8       =    0.7875
 VDW_A1       =    0.4289
 VDW_A2       =    4.4407
 k1-k3        =   16.0000    1.3333   -4.0000
 VDW_RADIUS   =   50.2022 A
 VDW_CNRADIUS =   21.1671 A
 Edisp (eV)   -0.50460

 E6    (eV) :    -0.3597
 E8    (eV) :    -0.1449
 % E8        : 28.72

  FORCE on cell =-STRESS in cart. coord.  units (eV):
  Direction    XX          YY          ZZ          XY          YZ          ZX
  Alpha Z    37.84929    37.84929    37.84929
  Ewald    -127.14940  -127.14940  -127.14941     0.00000     0.00000     0.00000
  Hartree     7.59175     7.59175     7.59175     0.00000     0.00000     0.00000
  E(xc)     -31.96911   -31.96911   -31.96911     0.00000     0.00000     0.00000
  Local      -6.91112    -6.91112    -6.91111    -0.00000    -0.00000    -0.00000
  n-local    -9.97833    -9.99780    -9.96862    -0.27688    -0.21859     0.51925
  augment    -1.04301    -1.04301    -1.04301     0.00000     0.00000     0.00000
  Kinetic   139.95985   144.04696   143.33028     3.37537     1.33311    -0.33205
  Fock        0.00000     0.00000     0.00000     0.00000     0.00000     0.00000
  vdW        -0.51004    -0.51004    -0.51004    -0.00000    -0.00000    -0.00000
  Total      10.32247    10.32247    10.32247    -0.00000    -0.00000    -0.00000
  in kB    1920.61354  1920.61354  1920.61354    -0.00000    -0.00000    -0.00000

 VOLUME and BASIS-vectors are now :
  energy-cutoff  :      800.00
  volume of cell :        8.61
      direct lattice vectors                 reciprocal lattice vectors
     2.300680784  0.000000000  0.000000000     0.434653954 -0.250947577 -0.177446734
     1.150340392  1.992448005  0.000000000     0.000000000  0.501895155 -0.177446734
     1.150340392  0.664149335  1.878497994     0.000000000  0.000000000  0.532340201

  length of vectors
     2.300680784  2.300680784  2.300680784     0.532340201  0.532340201  0.532340201

 FORCES acting on ions
    electron-ion (+dipol)            ewald-force                    non-local-force                 convergence-correction
   -.370E-05 -.214E-05 -.196E-05   -.194E-05 -.112E-05 -.315E-05   -.312E-16 -.278E-16 -.208E-16   -.347E-10 -.200E-10 -.147E-10
   0.278E-06 0.161E-06 0.476E-05   0.194E-05 0.112E-05 0.315E-05   0.330E-16 0.330E-16 0.139E-16   0.327E-10 0.189E-10 0.163E-10
   -.342E-05 -.198E-05 0.280E-05   -.124E-16 -.137E-15 -.152E-15   0.173E-17 0.520E-17 -.694E-17   -.202E-11 -.116E-11 0.165E-11

 POSITION                                       TOTAL-FORCE (eV/Angst)
      0.00000      0.00000      0.00000         0.000000     -0.000000     -0.000000
      1.15034      0.66415      0.46962        -0.000000      0.000000      0.000000
    total drift:                               -0.000003     -0.000002      0.000003

  FREE ENERGIE OF THE ION-ELECTRON SYSTEM (eV)
  free  energy   TOTEN  =       -17.28055662 eV

  energy  without entropy=      -17.28055662  energy(sigma->0) =      -17.28055662

 reached required accuracy - stopping structural energy minimisation
 BZINTS: Fermi energy: 14.197749;  8.000000 electrons
         Band energy:  26.495669;  BLOECHL correction:  0.000000