 vasp.5.3.5 31Mar14 (build Nov 04 2014 22:34:45) complex

 executed on         atom-AMD-MKL date 2016.08.11  21:24:43

 INCAR:
 POTCAR:   PAW_PBE C 08Apr2002
 POTCAR:   PAW_PBE C 08Apr2002
   VRHFIN =C: s2p2

   TITEL  = PAW_PBE C 08Apr2002
   POMASS =   12.011; ZVAL   =    4.000    mass and valenz
   ENMAX  =  400.000; ENMIN  =  300.000 eV
   QCUT   =   -5.516; QGAM   =   11.032    optimization parameters

   Description
     l     E      TYP  RCUT    TYP  RCUT
     0   .000     23  1.200
     0   .000     23  1.200
     1   .000     23  1.500
     1  2.500     23  1.500
     2   .000      7  1.500

 PAW_PBE C 08Apr2002                    :

 POSCAR: CIF file
  positions in direct lattice
  velocities in cartesian coordinates
 exchange correlation table for  LEXCH =        8
   RHO(1)=    0.500       N(1)  =     2000
   RHO(2)=  100.500       N(2)  =     4000

 ion  position               nearest neighbor table
   1  1.000  0.000  0.250-   3 1.42   3 1.42   3 1.42
   2  0.000  1.000  0.750-   4 1.42   4 1.42   4 1.42
   3  0.333  0.667  0.250-   1 1.42   1 1.42   1 1.42
   4  0.667  0.333  0.750-   2 1.42   2 1.42   2 1.42

  LATTYP: Found a base centered orthorhombic cell.
 ALAT       =     2.4669628383
 B/A-ratio  =     1.7322311103
 C/A-ratio  =     2.9989574343

  Lattice vectors:

 A1 = (   2.4671554424,  -0.0001112000,   0.0000000000)
 A2 = (  -1.2336740232,   2.1365636881,   0.0000000000)
 A3 = (   0.0000000000,   0.0000000000,   7.3983165440)

Analysis of symmetry for initial positions (statically):
 Subroutine PRICEL returns:
 Original cell was already a primitive cell.

 Routine SETGRP: Setting up the symmetry group for a
 base centered orthorhombic supercell.

 Subroutine GETGRP returns: Found  8 space group operations
 (whereof  4 operations were pure point group operations)
 out of a pool of  8 trial point group operations.

The static configuration has the point symmetry C_2h.
 The point group associated with its full space group is D_2h.

Analysis of symmetry for dynamics (positions and initial velocities):
 Subroutine PRICEL returns:
 Original cell was already a primitive cell.

 Routine SETGRP: Setting up the symmetry group for a
 base centered orthorhombic supercell.

 Subroutine GETGRP returns: Found  8 space group operations
 (whereof  4 operations were pure point group operations)
 out of a pool of  8 trial point group operations.

The dynamic configuration has the point symmetry C_2h.
 The point group associated with its full space group is D_2h.

 KPOINTS: B4C B11C-CBC

Automatic generation of k-mesh.
Space group operators:
 irot       det(A)        alpha          n_x          n_y          n_z        tau_x        tau_y        tau_z
    1     1.000000     0.000000     1.000000     0.000000     0.000000     0.000000     0.000000     0.000000
    2    -1.000000     0.000000     1.000000     0.000000     0.000000     0.000000     0.000000     0.000000
    3     1.000000   180.000000    -0.500000    -0.866025     0.000000     0.000000     0.000000     0.000000
    4    -1.000000   180.000000    -0.500000    -0.866025     0.000000     0.000000     0.000000     0.000000
    5     1.000000   180.000000     0.000000     0.000000     1.000000     0.000000     0.000000     0.500000
    6    -1.000000   180.000000     0.000000     0.000000     1.000000     0.000000     0.000000     0.500000
    7     1.000000   180.000000     0.866025    -0.500000     0.000000     0.000000     0.000000     0.500000
    8    -1.000000   180.000000     0.866025    -0.500000     0.000000     0.000000     0.000000     0.500000

 Subroutine IBZKPT returns following result:

 Found    455 irreducible k-points:

 Following reciprocal coordinates:
            Coordinates               Weight
  0.000000  0.000000  0.000000      1.000000
  0.055556  0.000000  0.000000      4.000000
  0.111111  0.000000  0.000000      4.000000
  0.166667  0.000000  0.000000      4.000000
  0.222222 -0.000000  0.000000      4.000000
  0.277778  0.000000  0.000000      4.000000
  0.333333  0.000000  0.000000      4.000000
  0.388889  0.000000  0.000000      4.000000
  0.444444 -0.000000  0.000000      4.000000
  0.500000 -0.000000  0.000000      2.000000
  0.055556  0.055556  0.000000      2.000000
  0.111111  0.055556  0.000000      4.000000
  0.166667  0.055556  0.000000      4.000000
  0.222222  0.055556  0.000000      4.000000
  0.277778  0.055556  0.000000      4.000000
  0.333333  0.055556  0.000000      4.000000
  0.388889  0.055556  0.000000      4.000000
  0.444444  0.055556  0.000000      4.000000
  0.500000  0.055556  0.000000      4.000000
 -0.444444  0.055556  0.000000      4.000000
 -0.388889  0.055556  0.000000      4.000000
 -0.333333  0.055556  0.000000      4.000000
 -0.277778  0.055556  0.000000      4.000000
 -0.222222  0.055556  0.000000      4.000000
 -0.166667  0.055556  0.000000      4.000000
 -0.111111  0.055556  0.000000      4.000000
 -0.055556  0.055556  0.000000      2.000000
  0.111111  0.111111  0.000000      2.000000
  0.166667  0.111111  0.000000      4.000000
  0.222222  0.111111  0.000000      4.000000
  0.277778  0.111111  0.000000      4.000000
  0.333333  0.111111  0.000000      4.000000
  0.388889  0.111111  0.000000      4.000000
  0.444444  0.111111  0.000000      4.000000
  0.500000  0.111111  0.000000      4.000000
 -0.444444  0.111111  0.000000      4.000000
 -0.388889  0.111111  0.000000      4.000000
 -0.333333  0.111111  0.000000      4.000000
 -0.277778  0.111111  0.000000      4.000000
 -0.222222  0.111111  0.000000      4.000000
 -0.166667  0.111111  0.000000      4.000000
 -0.111111  0.111111  0.000000      2.000000
  0.166667  0.166667  0.000000      2.000000
  0.222222  0.166667  0.000000      4.000000
  0.277778  0.166667  0.000000      4.000000
  0.333333  0.166667  0.000000      4.000000
  0.388889  0.166667  0.000000      4.000000
  0.444444  0.166667  0.000000      4.000000
  0.500000  0.166667  0.000000      4.000000
 -0.444444  0.166667  0.000000      4.000000
 -0.388889  0.166667  0.000000      4.000000
 -0.333333  0.166667  0.000000      4.000000
 -0.277778  0.166667  0.000000      4.000000
 -0.222222  0.166667  0.000000      4.000000
 -0.166667  0.166667  0.000000      2.000000
  0.222222  0.222222  0.000000      2.000000
  0.277778  0.222222  0.000000      4.000000
  0.333333  0.222222  0.000000      4.000000
  0.388889  0.222222  0.000000      4.000000
  0.444444  0.222222  0.000000      4.000000
[...]
  0.388889  0.333333  0.500000      4.000000
  0.444444  0.333333  0.500000      4.000000
  0.500000  0.333333  0.500000      4.000000
 -0.444444  0.333333  0.500000      4.000000
 -0.388889  0.333333  0.500000      4.000000
 -0.333333  0.333333  0.500000      2.000000
  0.388889  0.388889  0.500000      2.000000
  0.444444  0.388889  0.500000      4.000000
  0.500000  0.388889  0.500000      4.000000
 -0.444444  0.388889  0.500000      4.000000
 -0.388889  0.388889  0.500000      2.000000
  0.444444  0.444444  0.500000      2.000000
  0.500000  0.444444  0.500000      4.000000
 -0.444444  0.444444  0.500000      2.000000
  0.500000  0.500000  0.500000      1.000000

 Following cartesian coordinates:
            Coordinates               Weight
  0.000000  0.000000  0.000000      1.000000
  0.022519  0.013002  0.000000      4.000000
  0.045037  0.026005  0.000000      4.000000
  0.067556  0.039007  0.000000      4.000000
  0.090075  0.052010  0.000000      4.000000
  0.112593  0.065012  0.000000      4.000000
  0.135112  0.078015  0.000000      4.000000
  0.157631  0.091017  0.000000      4.000000
  0.180149  0.104020  0.000000      4.000000
  0.202668  0.117022  0.000000      2.000000
  0.022520  0.039005  0.000000      2.000000
  0.045038  0.052008  0.000000      4.000000
  0.067557  0.065010  0.000000      4.000000
  0.090076  0.078013  0.000000      4.000000
  0.112594  0.091015  0.000000      4.000000
  0.135113  0.104018  0.000000      4.000000
  0.157632  0.117020  0.000000      4.000000
  0.180150  0.130023  0.000000      4.000000
  0.202669  0.143025  0.000000      4.000000
 -0.180148 -0.078017  0.000000      4.000000
 -0.157629 -0.065015  0.000000      4.000000
 -0.135111 -0.052012  0.000000      4.000000
 -0.112592 -0.039010  0.000000      4.000000
 -0.090073 -0.026007  0.000000      4.000000
 -0.067555 -0.013005  0.000000      4.000000
 -0.045036 -0.000002  0.000000      4.000000
 -0.022517  0.013000  0.000000      2.000000
  0.045040  0.078011  0.000000      2.000000
  0.067558  0.091013  0.000000      4.000000
  0.090077  0.104016  0.000000      4.000000
  0.112596  0.117018  0.000000      4.000000
  0.135114  0.130021  0.000000      4.000000
  0.157633  0.143023  0.000000      4.000000
  0.180152  0.156026  0.000000      4.000000
  0.202670  0.169028  0.000000      4.000000
 -0.180147 -0.052014  0.000000      4.000000
 -0.157628 -0.039012  0.000000      4.000000
 -0.135110 -0.026009  0.000000      4.000000
 -0.112591 -0.013007  0.000000      4.000000
 -0.090072 -0.000004  0.000000      4.000000
 -0.067554  0.012998  0.000000      4.000000
 -0.045035  0.026001  0.000000      2.000000
  0.067559  0.117016  0.000000      2.000000
  0.090078  0.130019  0.000000      4.000000
  0.112597  0.143021  0.000000      4.000000
  0.135115  0.156024  0.000000      4.000000
  0.157634  0.169026  0.000000      4.000000
  0.180153  0.182029  0.000000      4.000000
  0.202671  0.195031  0.000000      4.000000
 -0.180146 -0.026011  0.000000      4.000000
 -0.157627 -0.013009  0.000000      4.000000
 -0.135108 -0.000006  0.000000      4.000000
 -0.112590  0.012996  0.000000      4.000000
 -0.090071  0.025999  0.000000      4.000000
 -0.067552  0.039001  0.000000      2.000000
  0.090079  0.156022  0.000000      2.000000
  0.112598  0.169024  0.000000      4.000000
  0.135117  0.182027  0.000000      4.000000
  0.157635  0.195029  0.000000      4.000000
  0.180154  0.208032  0.000000      4.000000
[...]
  0.157638  0.247035  0.067583      4.000000
  0.180156  0.260038  0.067583      4.000000
  0.202675  0.273040  0.067583      4.000000
 -0.180142  0.051998  0.067583      4.000000
 -0.157623  0.065000  0.067583      4.000000
 -0.135105  0.078003  0.067583      2.000000
  0.157639  0.273038  0.067583      2.000000
  0.180157  0.286041  0.067583      4.000000
  0.202676  0.299043  0.067583      4.000000
 -0.180141  0.078001  0.067583      4.000000
 -0.157622  0.091003  0.067583      2.000000
  0.180159  0.312044  0.067583      2.000000
  0.202677  0.325046  0.067583      4.000000
 -0.180140  0.104004  0.067583      2.000000
  0.202678  0.351049  0.067583      1.000000

 TETIRR: Found   3888 inequivalent tetrahedra from    15552

 I would recommend the setting:
   dimension x,y,z NGX =    20 NGY =   20 NGZ =   59
 SYSTEM =  graphite
 POSCAR =  CIF file

 Startparameter for this run:
   NWRITE =      2    write-flag & timer
   PREC   = accura    normal or accurate (medium, high low for compatibility)
   ISTART =      0    job   : 0-new  1-cont  2-samecut
   ICHARG =      2    charge: 1-file 2-atom 10-const
   ISPIN  =      1    spin polarized calculation?
   LNONCOLLINEAR =      F non collinear calculations
   LSORBIT =      F    spin-orbit coupling
[...]
 k-point 33 :   0.3889 0.1111 0.0000  plane waves:    1301
 k-point 34 :   0.4444 0.1111 0.0000  plane waves:    1297
 k-point 35 :   0.5000 0.1111 0.0000  plane waves:    1303
 k-point 36 :  -0.4444 0.1111 0.0000  plane waves:    1297
 k-point 37 :  -0.3889 0.1111 0.0000  plane waves:    1300
 k-point 38 :  -0.3333 0.1111 0.0000  plane waves:    1301
 k-point 39 :  -0.2778 0.1111 0.0000  plane waves:    1298
 k-point 40 :  -0.2222 0.1111 0.0000  plane waves:    1305
 k-point 41 :  -0.1667 0.1111 0.0000  plane waves:    1290
 k-point 42 :  -0.1111 0.1111 0.0000  plane waves:    1287
 k-point 43 :   0.1667 0.1667 0.0000  plane waves:    1311
 k-point 44 :   0.2222 0.1667 0.0000  plane waves:    1298
 k-point 45 :   0.2778 0.1667 0.0000  plane waves:    1307
 k-point 46 :   0.3333 0.1667 0.0000  plane waves:    1309
 k-point 47 :   0.3889 0.1667 0.0000  plane waves:    1313
 k-point 48 :   0.4444 0.1667 0.0000  plane waves:    1313
 k-point 49 :   0.5000 0.1667 0.0000  plane waves:    1309
 k-point 50 :  -0.4444 0.1667 0.0000  plane waves:    1307
 k-point 51 :  -0.3889 0.1667 0.0000  plane waves:    1298
 k-point 52 :  -0.3333 0.1667 0.0000  plane waves:    1311
 k-point 53 :  -0.2778 0.1667 0.0000  plane waves:    1298
 k-point 54 :  -0.2222 0.1667 0.0000  plane waves:    1293
 k-point 55 :  -0.1667 0.1667 0.0000  plane waves:    1297
 k-point 56 :   0.2222 0.2222 0.0000  plane waves:    1315
 k-point 57 :   0.2778 0.2222 0.0000  plane waves:    1308
 k-point 58 :   0.3333 0.2222 0.0000  plane waves:    1314
 k-point 59 :   0.3889 0.2222 0.0000  plane waves:    1313
 k-point 60 :   0.4444 0.2222 0.0000  plane waves:    1314
[...]
 k-point 85 :   0.5000 0.3889 0.0000  plane waves:    1303
 k-point 86 :  -0.4444 0.3889 0.0000  plane waves:    1302
 k-point 87 :  -0.3889 0.3889 0.0000  plane waves:    1306
 k-point 88 :   0.4444 0.4444 0.0000  plane waves:    1297
 k-point 89 :   0.5000 0.4444 0.0000  plane waves:    1306
 k-point 90 :  -0.4444 0.4444 0.0000  plane waves:    1304
 k-point 91 :   0.5000 0.5000 0.0000  plane waves:    1300
 k-point 92 :   0.0000 0.0000 0.1250  plane waves:    1283
 k-point 93 :   0.0556 0.0000 0.1250  plane waves:    1276
 k-point 94 :   0.1111 0.0000 0.1250  plane waves:    1282
 k-point 95 :   0.1667 0.0000 0.1250  plane waves:    1301
 k-point 96 :   0.2222-0.0000 0.1250  plane waves:    1297
 k-point 97 :   0.2778 0.0000 0.1250  plane waves:    1295
 k-point 98 :   0.3333 0.0000 0.1250  plane waves:    1299
 k-point 99 :   0.3889 0.0000 0.1250  plane waves:    1304
 k-point ** :   0.4444-0.0000 0.1250  plane waves:    1300
 k-point ** :   0.5000-0.0000 0.1250  plane waves:    1302
 k-point ** :   0.0556 0.0556 0.1250  plane waves:    1282
 k-point ** :   0.1111 0.0556 0.1250  plane waves:    1292
 k-point ** :   0.1667 0.0556 0.1250  plane waves:    1293
 k-point ** :   0.2222 0.0556 0.1250  plane waves:    1297
 k-point ** :   0.2778 0.0556 0.1250  plane waves:    1290
 k-point ** :   0.3333 0.0556 0.1250  plane waves:    1300
 k-point ** :   0.3889 0.0556 0.1250  plane waves:    1305
 k-point ** :   0.4444 0.0556 0.1250  plane waves:    1304
 k-point ** :   0.5000 0.0556 0.1250  plane waves:    1304
 k-point ** :  -0.4444 0.0556 0.1250  plane waves:    1305
 k-point ** :  -0.3889 0.0556 0.1250  plane waves:    1300
 k-point ** :  -0.3333 0.0556 0.1250  plane waves:    1290
 k-point ** :  -0.2778 0.0556 0.1250  plane waves:    1297
 k-point ** :  -0.2222 0.0556 0.1250  plane waves:    1293
 k-point ** :  -0.1667 0.0556 0.1250  plane waves:    1292
 k-point ** :  -0.1111 0.0556 0.1250  plane waves:    1282
 k-point ** :  -0.0556 0.0556 0.1250  plane waves:    1276
 k-point ** :   0.1111 0.1111 0.1250  plane waves:    1295
 k-point ** :   0.1667 0.1111 0.1250  plane waves:    1293
 k-point ** :   0.2222 0.1111 0.1250  plane waves:    1298
 k-point ** :   0.2778 0.1111 0.1250  plane waves:    1295
 k-point ** :   0.3333 0.1111 0.1250  plane waves:    1300
 k-point ** :   0.3889 0.1111 0.1250  plane waves:    1311
 k-point ** :   0.4444 0.1111 0.1250  plane waves:    1312
 k-point ** :   0.5000 0.1111 0.1250  plane waves:    1311
 k-point ** :  -0.4444 0.1111 0.1250  plane waves:    1300
 k-point ** :  -0.3889 0.1111 0.1250  plane waves:    1295
 k-point ** :  -0.3333 0.1111 0.1250  plane waves:    1297
 k-point ** :  -0.2778 0.1111 0.1250  plane waves:    1293
 k-point ** :  -0.2222 0.1111 0.1250  plane waves:    1292
 k-point ** :  -0.1667 0.1111 0.1250  plane waves:    1292
 k-point ** :  -0.1111 0.1111 0.1250  plane waves:    1283
 k-point ** :   0.1667 0.1667 0.1250  plane waves:    1298
 k-point ** :   0.2222 0.1667 0.1250  plane waves:    1299
 k-point ** :   0.2778 0.1667 0.1250  plane waves:    1305
 k-point ** :   0.3333 0.1667 0.1250  plane waves:    1303
 k-point ** :   0.3889 0.1667 0.1250  plane waves:    1308
 k-point ** :   0.4444 0.1667 0.1250  plane waves:    1308
 k-point ** :   0.5000 0.1667 0.1250  plane waves:    1303
 k-point ** :  -0.4444 0.1667 0.1250  plane waves:    1305
 k-point ** :  -0.3889 0.1667 0.1250  plane waves:    1299
 k-point ** :  -0.3333 0.1667 0.1250  plane waves:    1298
 k-point ** :  -0.2778 0.1667 0.1250  plane waves:    1293
 k-point ** :  -0.2222 0.1667 0.1250  plane waves:    1293
 k-point ** :  -0.1667 0.1667 0.1250  plane waves:    1301
 k-point ** :   0.2222 0.2222 0.1250  plane waves:    1314
 k-point ** :   0.2778 0.2222 0.1250  plane waves:    1311
 k-point ** :   0.3333 0.2222 0.1250  plane waves:    1313
 k-point ** :   0.3889 0.2222 0.1250  plane waves:    1315
 k-point ** :   0.4444 0.2222 0.1250  plane waves:    1312
 k-point ** :   0.5000 0.2222 0.1250  plane waves:    1312
 k-point ** :  -0.4444 0.2222 0.1250  plane waves:    1314
 k-point ** :  -0.3889 0.2222 0.1250  plane waves:    1299
 k-point ** :  -0.3333 0.2222 0.1250  plane waves:    1298
 k-point ** :  -0.2778 0.2222 0.1250  plane waves:    1297
 k-point ** :  -0.2222 0.2222 0.1250  plane waves:    1297
 k-point ** :   0.2778 0.2778 0.1250  plane waves:    1319
 k-point ** :   0.3333 0.2778 0.1250  plane waves:    1319
[...]
 k-point ** :   0.3889 0.3333 0.5000  plane waves:    1330
 k-point ** :   0.4444 0.3333 0.5000  plane waves:    1324
 k-point ** :   0.5000 0.3333 0.5000  plane waves:    1314
 k-point ** :  -0.4444 0.3333 0.5000  plane waves:    1306
 k-point ** :  -0.3889 0.3333 0.5000  plane waves:    1300
 k-point ** :  -0.3333 0.3333 0.5000  plane waves:    1294
 k-point ** :   0.3889 0.3889 0.5000  plane waves:    1328
 k-point ** :   0.4444 0.3889 0.5000  plane waves:    1324
 k-point ** :   0.5000 0.3889 0.5000  plane waves:    1314
 k-point ** :  -0.4444 0.3889 0.5000  plane waves:    1306
 k-point ** :  -0.3889 0.3889 0.5000  plane waves:    1302
 k-point ** :   0.4444 0.4444 0.5000  plane waves:    1312
 k-point ** :   0.5000 0.4444 0.5000  plane waves:    1306
 k-point ** :  -0.4444 0.4444 0.5000  plane waves:    1302
 k-point ** :   0.5000 0.5000 0.5000  plane waves:    1276

 maximum and minimum number of plane-waves per node :       458      398

 maximum number of plane-waves:      1335
 maximum index in each direction:
   IXMAX=    5   IYMAX=    4   IZMAX=   14
   IXMIN=   -5   IYMIN=   -5   IZMIN=  -15

 WARNING: aliasing errors must be expected set NGX to  22 to avoid them
 NGY is ok and might be reduce to  20
 NGZ is ok and might be reduce to  60
 aliasing errors are usually negligible using standard VASP settings
 and one can safely disregard these warnings

 parallel 3D FFT for wavefunctions:
    minimum data exchange during FFTs selected (reduces bandwidth)
 parallel 3D FFT for charge:
    minimum data exchange during FFTs selected (reduces bandwidth)

 Broyden mixing: mesh for mixing (old mesh)
   NGX =  9   NGY =  9   NGZ = 29
  (NGX  = 40   NGY  = 40   NGZ  =120)
  gives a total of   2349 points

 initial charge density was supplied:
 charge density of overlapping atoms calculated
 number of electron      16.0000000 magnetization
 keeping initial charge density in first step

 Maximum index for augmentation-charges         1341 (set IRDMAX)

 First call to EWALD:  gamma=   0.523
 Maximum number of real-space cells 4x 4x 2
 Maximum number of reciprocal cells 2x 2x 5

 FEWALD executed in parallel

----------------------------------------- Iteration    1(   1)  ---------------------------------------

 BZINTS: Fermi energy: 13.306241; 16.000000 electrons
         Band energy: -21.837868;  BLOECHL correction: -0.394275

 eigenvalue-minimisations  : 10936
 total energy-change (2. order) : 0.6185808E+02  (-0.8840141E+03)
 number of electron      16.0000000 magnetization
 augmentation part       16.0000000 magnetization

 Free energy of the ion-electron system (eV)
  alpha Z        PSCENC =        33.43011840
  Ewald energy   TEWEN  =      -397.74854510
  -Hartree energ DENC   =      -191.22623814
  -exchange      EXHF   =         0.00000000
  -V(xc)+E(xc)   XCENC  =        55.24137916
  PAW double counting   =       151.32577238     -155.92769107
  entropy T*S    EENTRO =         0.00000000
  eigenvalues    EBANDS =       -21.83786835
  atomic energy  EATOM  =       588.60115103
  free energy    TOTEN  =        61.85807831 eV

  energy without entropy =       61.85807831  energy(sigma->0) =       61.85807831

[...]

 BZINTS: Fermi energy:  2.684964; 16.000000 electrons
         Band energy:-118.193873;  BLOECHL correction: -0.000161

 eigenvalue-minimisations  : 15792
 total energy-change (2. order) :-0.9635600E+02  (-0.8839104E+02)
 number of electron      16.0000000 magnetization
 augmentation part       16.0000000 magnetization

[...]

 Broyden mixing:
  rms(total) = 0.77980E+00    rms(broyden)= 0.77971E+00
  rms(prec ) = 0.11914E+01
  weight for this iteration     100.00

[...]

 BZINTS: Fermi energy:  2.999596; 16.000000 electrons
         Band energy:-104.196919;  BLOECHL correction: -0.000012

[...]

 eigenvalues of (default mixing * dielectric matrix)
  average eigenvalue GAMMA=   2.0347
  2.0347

[...]

 eigenvalue-minimisations  : 13020
 total energy-change (2. order) : 0.6023586E+00  (-0.1957554E+00)
 number of electron      16.0000001 magnetization
 augmentation part        0.3849441 magnetization

[...]

 Broyden mixing:
  rms(total) = 0.21098E-03    rms(broyden)= 0.21079E-03
  rms(prec ) = 0.34523E-03
  weight for this iteration     100.00

 eigenvalues of (default mixing * dielectric matrix)
  average eigenvalue GAMMA=   1.9665
  3.0375  2.4142  2.4142  1.9474  1.0102  0.9754

[...]

----------------------------------------- Iteration    1(  12)  ---------------------------------------

 BZINTS: Fermi energy:  3.855362; 16.000000 electrons
         Band energy: -84.178350;  BLOECHL correction: -0.000016

 eigenvalue-minimisations  : 12596
 total energy-change (2. order) :-0.7005967E-06  (-0.1300541E-06)
 number of electron      16.0000001 magnetization
 augmentation part        0.3829739 magnetization

 Free energy of the ion-electron system (eV)
  alpha Z        PSCENC =        33.43011840
  Ewald energy   TEWEN  =      -397.74854510
  -Hartree energ DENC   =      -229.37828485
  -exchange      EXHF   =         0.00000000
  -V(xc)+E(xc)   XCENC  =        57.55697430
  PAW double counting   =       277.31078195     -282.47386112
  entropy T*S    EENTRO =         0.00000000
  eigenvalues    EBANDS =       -84.17834991
  atomic energy  EATOM  =       588.60115103
  free energy    TOTEN  =       -36.88001530 eV

  energy without entropy =      -36.88001530  energy(sigma->0) =      -36.88001530

 average (electrostatic) potential at core
  the test charge radii are     0.6991
  (the norm of the test charge is              1.0000)
       1 -51.5634       2 -51.5634       3 -51.5559       4 -51.5559

 E-fermi :   3.8554     XC(G=0):  -9.6324     alpha+bet :-10.2971

 k-point     1 :       0.0000    0.0000    0.0000
  band No.  band energies     occupation
      1     -15.6996      2.00000
      2     -15.5645      2.00000
      3      -4.2915      2.00000
      4      -3.1298      2.00000
      5       0.8378      2.00000
      6       0.8425      2.00000
      7       0.8439      2.00000
      8       0.8486      2.00000
      9       7.5044      0.00000
     10      12.1726      0.00000
     11      12.1869      0.00000
     12      12.1930      0.00000

[...]

 k-point   455 :       0.5000    0.5000    0.5000
  band No.  band energies     occupation
      1     -10.3971      2.00000
      2     -10.3971      2.00000
      3      -9.3494      2.00000
      4      -9.3494      2.00000
      5      -2.5282      2.00000
      6      -2.5282      2.00000
      7       1.5015      2.00000
      8       1.5015      2.00000
      9       5.5198      0.00000
     10       5.5198      0.00000
     11      11.2346      0.00000
     12      11.2346      0.00000

 soft charge-density along one line, spin component           1
         0         1         2         3         4         5         6         7         8         9
 total charge-density along one line

------------------------ aborting loop because EDIFF is reached ----------------------------------------

         DFTD3 V3.0 Rev 1
 IVDW         = 11
 DF pbe
 parameters
 VDW_S6       =    1.0000
 VDW_S8       =    0.7220
 VDW_SR       =    1.2170
 rs18     =    1.0000
 alpha6   =   14.0000
 alpha8   =   16.0000
 k1-k3    =   16.0000    1.3333   -4.0000
 VDW_RADIUS   =   50.2022 A
 VDW_CNRADIUS =   21.1671 A
 Edisp (eV)   -0.33307

 E6    (eV) :    -0.2218
 E8    (eV) :    -0.1113
 % E8        : 33.41

  FORCE on cell =-STRESS in cart. coord.  units (eV):
  Direction    XX          YY          ZZ          XY          YZ          ZX
  Alpha Z    33.43012    33.43012    33.43012
  Ewald     139.84654   139.79669  -677.39222    -0.04317    -0.00000    -0.00000
  Hartree   206.76658   206.76005  -184.14751    -0.00566    -0.00000    -0.00000
  E(xc)     -58.37389   -58.37420   -60.63250    -0.00027    -0.00000    -0.00000
  Local    -546.14052  -546.09269   628.23084     0.04142    -0.00000    -0.00000
  n-local   -14.42667   -13.67245   -12.79883    -0.21984     0.00466    -0.00458
  augment    -1.54348    -1.54340    -1.41513     0.00007    -0.00000    -0.00000
  Kinetic   243.75091   236.36310   274.89479     2.15108    -0.06919     0.06585
  Fock        0.00000     0.00000     0.00000     0.00000     0.00000     0.00000
  vdW        -0.06855    -0.06849    -0.50533     0.00005    -0.00000     0.00000
  Total      -0.08281    -0.07743    -0.33577     0.00466     0.00000     0.00000
  in kB      -3.40202    -3.18118   -13.79490     0.19125     0.00000     0.00000

 VOLUME and BASIS-vectors are now :
  energy-cutoff  :      600.00
  volume of cell :       39.00
      direct lattice vectors                 reciprocal lattice vectors
     2.467155442 -0.000111200  0.000000000     0.405335638  0.234045000  0.000000000
    -1.233674023  2.136563688  0.000000000     0.000021096  0.468053460  0.000000000
     0.000000000  0.000000000  7.398316544     0.000000000  0.000000000  0.135165885

  length of vectors
     2.467155445  2.467155445  7.398316544     0.468053460  0.468053460  0.135165885

 FORCES acting on ions
    electron-ion (+dipol)            ewald-force                    non-local-force                 convergence-correction
   -.863E-04 0.377E-04 0.300E-12   -.265E-02 0.152E-02 -.192E-13   -.191E-02 0.110E-02 -.108E-18   -.496E-05 0.286E-05 0.121E-12
   0.758E-04 -.559E-04 0.254E-12   0.264E-02 -.154E-02 0.192E-13   0.191E-02 -.110E-02 0.108E-18   0.496E-05 -.286E-05 -.127E-12
   -.130E-02 0.753E-03 0.110E-12   0.266E-02 -.152E-02 -.192E-13   0.123E-02 -.711E-03 0.000E+00   0.974E-06 -.562E-06 0.120E-12
   0.130E-02 -.746E-03 -.105E-12   -.265E-02 0.155E-02 0.192E-13   -.123E-02 0.711E-03 0.000E+00   -.974E-06 0.563E-06 -.127E-12
   -.678E-05 -.117E-04 0.559E-12   -.352E-14 0.650E-14 0.000E+00   -.555E-16 0.555E-16 0.000E+00   -.134E-09 -.232E-09 -.134E-13

 POSITION                                       TOTAL-FORCE (eV/Angst)
      2.46715     -0.00011      1.84958        -0.004644      0.002681      0.000000
     -1.23367      2.13656      5.54874         0.004644     -0.002681      0.000000
     -0.00019      1.42441      1.84958         0.002588     -0.001494     -0.000000
      1.23367      0.71204      5.54874        -0.002588      0.001494     -0.000000
    total drift:                               -0.000007     -0.000012      0.000000

  FREE ENERGIE OF THE ION-ELECTRON SYSTEM (eV)
  free  energy   TOTEN  =       -37.21308449 eV

  energy  without entropy=      -37.21308449  energy(sigma->0) =      -37.21308449

 reached required accuracy - stopping structural energy minimisation
 BZINTS: Fermi energy:  3.855362; 16.000000 electrons
         Band energy: -84.178350;  BLOECHL correction: -0.000016