 vasp.5.3.5 31Mar14 (build Nov 02 2014 15:17:37) complex

 executed on        ion-Intel-MKL date 2016.10.14  13:21:15

 INCAR:
 POTCAR:   PAW_PBE C 08Apr2002

 POTCAR:   PAW_PBE C 08Apr2002
   VRHFIN =C: s2p2

   TITEL  = PAW_PBE C 08Apr2002
   POMASS =   12.011; ZVAL   =    4.000    mass and valenz
   ENMAX  =  400.000; ENMIN  =  300.000 eV
   QCUT   =   -5.516; QGAM   =   11.032    optimization parameters

   Description
     l     E      TYP  RCUT    TYP  RCUT
     0   .000     23  1.200
     0   .000     23  1.200
     1   .000     23  1.500
     1  2.500     23  1.500
     2   .000      7  1.500

 PAW_PBE C 08Apr2002                    :

 POSCAR: C
  positions in direct lattice
 exchange correlation table for  LEXCH =        8
   RHO(1)=    0.500       N(1)  =     2000
   RHO(2)=  100.500       N(2)  =     4000

 ion  position               nearest neighbor table
   1  0.500  0.000  0.125-  18 1.42  19 1.42  20 1.42
   2  1.000  0.000  0.125-  20 1.42  17 1.42  19 1.42
   3  0.500  0.500  0.125-  20 1.42  18 1.42  17 1.43
   4  1.000  0.500  0.125-  17 1.42  19 1.42  18 1.42
   5  0.500  0.000  0.625-  22 1.42  23 1.42  24 1.42
   6  1.000  0.000  0.625-  21 1.42  24 1.42  23 1.42
   7  0.500  0.500  0.625-  24 1.42  21 1.42  22 1.42
   8  1.000  0.500  0.625-  23 1.42  22 1.42  21 1.42
   9  0.000  0.500  0.375-  27 1.42  26 1.42  28 1.42
  10  0.500  0.500  0.375-  28 1.42  25 1.42  27 1.42
  11  0.000  1.000  0.375-  25 1.42  28 1.42  26 1.42
  12  0.500  1.000  0.375-  26 1.42  27 1.42  25 1.42
  13  0.000  0.500  0.875-  31 1.42  30 1.42  32 1.42
  14  0.500  0.500  0.875-  32 1.42  29 1.42  31 1.42
  15  0.000  1.000  0.875-  29 1.42  32 1.42  30 1.42
  16  0.500  1.000  0.875-  30 1.42  31 1.42  29 1.42
  17  0.166  0.334  0.124-   4 1.42   2 1.42   3 1.43
  18  0.666  0.334  0.125-   1 1.42   4 1.42   3 1.42
  19  0.166  0.834  0.125-   4 1.42   1 1.42   2 1.42
  20  0.666  0.834  0.125-   3 1.42   2 1.42   1 1.42
  21  0.166  0.334  0.625-   6 1.42   7 1.42   8 1.42
  22  0.666  0.334  0.625-   5 1.42   8 1.42   7 1.42
  23  0.166  0.834  0.625-   8 1.42   5 1.42   6 1.42
  24  0.666  0.834  0.625-   7 1.42   6 1.42   5 1.42
  25  0.334  0.166  0.375-  11 1.42  10 1.42  12 1.42
  26  0.834  0.166  0.375-  12 1.42   9 1.42  11 1.42
  27  0.334  0.666  0.375-   9 1.42  12 1.42  10 1.42
  28  0.834  0.666  0.375-  10 1.42  11 1.42   9 1.42
  29  0.334  0.166  0.875-  15 1.42  14 1.42  16 1.42
  30  0.834  0.166  0.875-  16 1.42  13 1.42  15 1.42
  31  0.334  0.666  0.875-  13 1.42  16 1.42  14 1.42
  32  0.834  0.666  0.875-  14 1.42  15 1.42  13 1.42

  LATTYP: Found a base centered orthorhombic cell.
 ALAT       =     4.9295501972
 B/A-ratio  =     1.7336081796
 C/A-ratio  =     2.8789536551

  Lattice vectors:

 A1 = (   4.9328744980,  -0.0019192860,   0.0000000000)
 A2 = (  -2.4680993993,   4.2710349859,   0.0000000000)
 A3 = (   0.0000000000,   0.0000000000,  14.1919465582)

Analysis of symmetry for initial positions (statically):
 Subroutine PRICEL returns:
 Original cell was already a primitive cell.

 Routine SETGRP: Setting up the symmetry group for a
 base centered orthorhombic supercell.

 Subroutine GETGRP returns: Found  1 space group operations
 (whereof  1 operations were pure point group operations)
 out of a pool of  8 trial point group operations.

The static configuration has the point symmetry C_1 .

Analysis of symmetry for dynamics (positions and initial velocities):
 Subroutine PRICEL returns:
 Original cell was already a primitive cell.

 Routine SETGRP: Setting up the symmetry group for a
 base centered orthorhombic supercell.

 Subroutine GETGRP returns: Found  1 space group operations
 (whereof  1 operations were pure point group operations)
 out of a pool of  8 trial point group operations.

The dynamic configuration has the point symmetry C_1 .

 KPOINTS: B4C B11C-CBC

Automatic generation of k-mesh.
Space group operators:
 irot       det(A)        alpha          n_x          n_y          n_z        tau_x        tau_y        tau_z
    1     1.000000     0.000001     1.000000     0.000000     0.000000     0.000000     0.000000     0.000000

 Subroutine IBZKPT returns following result:

 Found     76 irreducible k-points:

 Following reciprocal coordinates:
            Coordinates               Weight
  0.000000  0.000000  0.000000      1.000000
  0.166667  0.000000  0.000000      2.000000
  0.333333  0.000000  0.000000      2.000000
  0.500000  0.000000  0.000000      1.000000
  0.000000  0.166667  0.000000      2.000000
  0.166667  0.166667  0.000000      2.000000
  0.333333  0.166667  0.000000      2.000000
  0.500000  0.166667  0.000000      2.000000
 -0.333333  0.166667  0.000000      2.000000
 -0.166667  0.166667  0.000000      2.000000
  0.000000  0.333333  0.000000      2.000000
  0.166667  0.333333  0.000000      2.000000
  0.333333  0.333333  0.000000      2.000000
  0.500000  0.333333  0.000000      2.000000
 -0.333333  0.333333  0.000000      2.000000
 -0.166667  0.333333  0.000000      2.000000
  0.000000  0.500000  0.000000      1.000000
  0.166667  0.500000  0.000000      2.000000
  0.333333  0.500000  0.000000      2.000000
  0.500000  0.500000  0.000000      1.000000
  0.000000  0.000000  0.250000      2.000000
  0.166667  0.000000  0.250000      2.000000
  0.333333  0.000000  0.250000      2.000000
  0.500000  0.000000  0.250000      2.000000
 -0.333333  0.000000  0.250000      2.000000
 -0.166667  0.000000  0.250000      2.000000
  0.000000  0.166667  0.250000      2.000000
  0.166667  0.166667  0.250000      2.000000
  0.333333  0.166667  0.250000      2.000000
  0.500000  0.166667  0.250000      2.000000
 -0.333333  0.166667  0.250000      2.000000
 -0.166667  0.166667  0.250000      2.000000
  0.000000  0.333333  0.250000      2.000000
  0.166667  0.333333  0.250000      2.000000
  0.333333  0.333333  0.250000      2.000000
  0.500000  0.333333  0.250000      2.000000
 -0.333333  0.333333  0.250000      2.000000
 -0.166667  0.333333  0.250000      2.000000
  0.000000  0.500000  0.250000      2.000000
  0.166667  0.500000  0.250000      2.000000
  0.333333  0.500000  0.250000      2.000000
  0.500000  0.500000  0.250000      2.000000
 -0.333333  0.500000  0.250000      2.000000
 -0.166667  0.500000  0.250000      2.000000
  0.000000 -0.333333  0.250000      2.000000
  0.166667 -0.333333  0.250000      2.000000
  0.333333 -0.333333  0.250000      2.000000
  0.500000 -0.333333  0.250000      2.000000
 -0.333333 -0.333333  0.250000      2.000000
 -0.166667 -0.333333  0.250000      2.000000
  0.000000 -0.166667  0.250000      2.000000
  0.166667 -0.166667  0.250000      2.000000
  0.333333 -0.166667  0.250000      2.000000
  0.500000 -0.166667  0.250000      2.000000
 -0.333333 -0.166667  0.250000      2.000000
 -0.166667 -0.166667  0.250000      2.000000
  0.000000  0.000000  0.500000      1.000000
  0.166667  0.000000  0.500000      2.000000
  0.333333  0.000000  0.500000      2.000000
  0.500000  0.000000  0.500000      1.000000
  0.000000  0.166667  0.500000      2.000000
  0.166667  0.166667  0.500000      2.000000
  0.333333  0.166667  0.500000      2.000000
  0.500000  0.166667  0.500000      2.000000
 -0.333333  0.166667  0.500000      2.000000
 -0.166667  0.166667  0.500000      2.000000
  0.000000  0.333333  0.500000      2.000000
  0.166667  0.333333  0.500000      2.000000
  0.333333  0.333333  0.500000      2.000000
  0.500000  0.333333  0.500000      2.000000
 -0.333333  0.333333  0.500000      2.000000
 -0.166667  0.333333  0.500000      2.000000
  0.000000  0.500000  0.500000      1.000000
  0.166667  0.500000  0.500000      2.000000
  0.333333  0.500000  0.500000      2.000000
  0.500000  0.500000  0.500000      1.000000

 Following cartesian coordinates:
            Coordinates               Weight
  0.000000  0.000000  0.000000      1.000000
  0.033795  0.019529  0.000000      2.000000
  0.067589  0.039058  0.000000      2.000000
  0.101384  0.058586  0.000000      1.000000
  0.000015  0.039031  0.000000      2.000000
  0.033810  0.058560  0.000000      2.000000
  0.067604  0.078089  0.000000      2.000000
  0.101399  0.097618  0.000000      2.000000
 -0.067574 -0.000026  0.000000      2.000000
 -0.033779  0.019503  0.000000      2.000000
  0.000030  0.078063  0.000000      2.000000
  0.033825  0.097591  0.000000      2.000000
  0.067619  0.117120  0.000000      2.000000
  0.101414  0.136649  0.000000      2.000000
 -0.067559  0.039005  0.000000      2.000000
 -0.033764  0.058534  0.000000      2.000000
  0.000046  0.117094  0.000000      1.000000
  0.033840  0.136623  0.000000      2.000000
  0.067635  0.156152  0.000000      2.000000
  0.101429  0.175680  0.000000      1.000000
  0.000000  0.000000  0.017616      2.000000
  0.033795  0.019529  0.017616      2.000000
  0.067589  0.039058  0.017616      2.000000
  0.101384  0.058586  0.017616      2.000000
 -0.067589 -0.039058  0.017616      2.000000
 -0.033795 -0.019529  0.017616      2.000000
  0.000015  0.039031  0.017616      2.000000
  0.033810  0.058560  0.017616      2.000000
  0.067604  0.078089  0.017616      2.000000
  0.101399  0.097618  0.017616      2.000000
 -0.067574 -0.000026  0.017616      2.000000
 -0.033779  0.019503  0.017616      2.000000
  0.000030  0.078063  0.017616      2.000000
  0.033825  0.097591  0.017616      2.000000
  0.067619  0.117120  0.017616      2.000000
  0.101414  0.136649  0.017616      2.000000
 -0.067559  0.039005  0.017616      2.000000
 -0.033764  0.058534  0.017616      2.000000
  0.000046  0.117094  0.017616      2.000000
  0.033840  0.136623  0.017616      2.000000
  0.067635  0.156152  0.017616      2.000000
  0.101429  0.175680  0.017616      2.000000
 -0.067543  0.078036  0.017616      2.000000
 -0.033749  0.097565  0.017616      2.000000
 -0.000030 -0.078063  0.017616      2.000000
  0.033764 -0.058534  0.017616      2.000000
  0.067559 -0.039005  0.017616      2.000000
  0.101353 -0.019476  0.017616      2.000000
 -0.067619 -0.117120  0.017616      2.000000
 -0.033825 -0.097591  0.017616      2.000000
 -0.000015 -0.039031  0.017616      2.000000
  0.033779 -0.019503  0.017616      2.000000
  0.067574  0.000026  0.017616      2.000000
  0.101368  0.019555  0.017616      2.000000
 -0.067604 -0.078089  0.017616      2.000000
 -0.033810 -0.058560  0.017616      2.000000
  0.000000  0.000000  0.035231      1.000000
  0.033795  0.019529  0.035231      2.000000
  0.067589  0.039058  0.035231      2.000000
  0.101384  0.058586  0.035231      1.000000
  0.000015  0.039031  0.035231      2.000000
  0.033810  0.058560  0.035231      2.000000
  0.067604  0.078089  0.035231      2.000000
  0.101399  0.097618  0.035231      2.000000
 -0.067574 -0.000026  0.035231      2.000000
 -0.033779  0.019503  0.035231      2.000000
  0.000030  0.078063  0.035231      2.000000
  0.033825  0.097591  0.035231      2.000000
  0.067619  0.117120  0.035231      2.000000
  0.101414  0.136649  0.035231      2.000000
 -0.067559  0.039005  0.035231      2.000000
 -0.033764  0.058534  0.035231      2.000000
  0.000046  0.117094  0.035231      1.000000
  0.033840  0.136623  0.035231      2.000000
  0.067635  0.156152  0.035231      2.000000
[...]

[...]

 eigenvalue-minimisations  :  8508
 total energy-change (2. order) :-0.6617483E-08  ( 0.5596727E-12)
 number of electron     127.9999995 magnetization
 augmentation part        3.0672811 magnetization

 Free energy of the ion-electron system (eV)
  alpha Z        PSCENC =       279.10932441
  Ewald energy   TEWEN  =     -3402.58644068
  -Hartree energ DENC   =     -1670.81150405
  -exchange      EXHF   =         0.00000000
  -V(xc)+E(xc)   XCENC  =       460.77660501
  PAW double counting   =      2221.85465578    -2263.17626377
  entropy T*S    EENTRO =         0.00000000
  eigenvalues    EBANDS =      -628.85099615
  atomic energy  EATOM  =      4708.80920826
  free energy    TOTEN  =      -294.87541119 eV

  energy without entropy =     -294.87541119  energy(sigma->0) =     -294.87541119

 average (electrostatic) potential at core
  the test charge radii are     0.6991
  (the norm of the test charge is              1.0000)
       1 -51.2117       2 -51.2118       3 -51.2115       4 -51.2119       5 -51.2114
       6 -51.2114       7 -51.2114       8 -51.2114       9 -51.2069      10 -51.2069
      11 -51.2069      12 -51.2068      13 -51.2069      14 -51.2069      15 -51.2069
      16 -51.2070      17 -51.1943      18 -51.1943      19 -51.1958      20 -51.1928
      21 -51.1939      22 -51.1939      23 -51.1939      24 -51.1939      25 -51.1934
      26 -51.1934      27 -51.1934      28 -51.1935      29 -51.1935      30 -51.1936
      31 -51.1936      32 -51.1935

 E-fermi :   4.2004     XC(G=0):  -9.9189     alpha+bet :-10.7464

 k-point     1 :       0.0000    0.0000    0.0000
  band No.  band energies     occupation
      1     -15.3865      2.00000
      2     -15.2938      2.00000
      3     -15.2914      2.00000
      4     -15.1944      2.00000
      5     -10.0938      2.00000
      6     -10.0827      2.00000
      7     -10.0797      2.00000
      8     -10.0583      2.00000
      9     -10.0564      2.00000
     10     -10.0477      2.00000
     11     -10.0425      2.00000
     12     -10.0424      2.00000
     13     -10.0423      2.00000
     14     -10.0247      2.00000
     15     -10.0115      2.00000
     16     -10.0092      2.00000
     17      -9.0291      2.00000
     18      -9.0271      2.00000
     19      -9.0265      2.00000
     20      -9.0084      2.00000
     21      -9.0054      2.00000
     22      -9.0043      2.00000
     23      -9.0043      2.00000
     24      -9.0031      2.00000
     25      -9.0013      2.00000
     26      -8.9754      2.00000
     27      -8.9734      2.00000
     28      -8.9726      2.00000
     29      -4.0860      2.00000
     30      -3.4173      2.00000
     31      -3.4149      2.00000
     32      -2.6218      2.00000
     33      -2.2027      2.00000
     34      -2.1996      2.00000
     35      -2.1889      2.00000
     36      -2.1860      2.00000
     37      -2.1838      2.00000
     38      -2.1831      2.00000
     39      -2.1831      2.00000
     40      -2.1704      2.00000
     41      -2.1694      2.00000
     42      -2.1694      2.00000
     43      -2.1671      2.00000
     44      -2.1534      2.00000
     45       1.1839      2.00000
     46       1.1947      2.00000
     47       1.1954      2.00000
     48       1.1993      2.00000
     49       1.2004      2.00000
     50       1.2019      2.00000
     51       1.2026      2.00000
     52       1.2105      2.00000
     53       1.5605      2.00000
     54       1.5653      2.00000
     55       1.5679      2.00000
     56       1.8392      2.00000
     57       1.8394      2.00000
     58       1.8468      2.00000
     59       1.8515      2.00000
     60       1.8523      2.00000
[...]
     70       5.8652      0.00000
     71       5.8655      0.00000
     72       5.8677      0.00000
     73       5.8700      0.00000
     74       6.2457      0.00000
     75       6.2496      0.00000
     76       6.2524      0.00000
     77       8.0916      0.00000
     78      10.3167      0.00000
     79      10.3194      0.00000
     80      11.4580      0.00000
     81      11.4618      0.00000
     82      11.4931      0.00000
     83      11.5877      0.00000
     84      11.5894      0.00000

[...]

 k-point    76 :       0.5000    0.5000    0.5000
  band No.  band energies     occupation
      1     -13.8910      2.00000
      2     -13.8880      2.00000
      3     -13.8880      2.00000
      4     -13.8855      2.00000
      5     -13.7678      2.00000
      6     -13.7651      2.00000
      7     -13.7651      2.00000
      8     -13.7626      2.00000
      9     -11.0522      2.00000
     10     -11.0504      2.00000
     11     -11.0504      2.00000
     12     -11.0488      2.00000
     13     -10.9541      2.00000
     14     -10.9524      2.00000
     15     -10.9524      2.00000
     16     -10.9508      2.00000
     17      -6.3207      2.00000
     18      -6.3205      2.00000
     19      -6.3205      2.00000
     20      -6.3169      2.00000
     21      -6.2884      2.00000
     22      -6.2883      2.00000
     23      -6.2883      2.00000
     24      -6.2843      2.00000
     25      -4.7335      2.00000
     26      -4.7303      2.00000
     27      -4.7290      2.00000
     28      -4.7290      2.00000
     29      -4.7076      2.00000
     30      -4.7058      2.00000
     31      -4.7048      2.00000
     32      -4.7048      2.00000
     33      -3.2261      2.00000
     34      -3.2198      2.00000
     35      -3.2198      2.00000
     36      -3.2194      2.00000
     37      -3.1820      2.00000
     38      -3.1776      2.00000
     39      -3.1776      2.00000
     40      -3.1773      2.00000
     41      -2.1441      2.00000
     42      -2.1420      2.00000
     43      -2.1419      2.00000
     44      -2.1394      2.00000
     45      -1.1890      2.00000
     46      -1.1868      2.00000
     47      -1.1867      2.00000
     48      -1.1839      2.00000
     49      -0.8175      2.00000
     50      -0.8154      2.00000
     51      -0.8154      2.00000
     52      -0.8097      2.00000
     53      -0.7973      2.00000
     54      -0.7959      2.00000
     55      -0.7959      2.00000
     56      -0.7865      2.00000
     57       1.1082      2.00000
     58       1.1113      2.00000
     59       1.1114      2.00000
     60       1.1124      2.00000
[...]
     70       7.1643      0.00000
     71       7.1644      0.00000
     72       7.1684      0.00000
     73      10.4662      0.00000
     74      10.4710      0.00000
     75      10.4711      0.00000
     76      10.4750      0.00000
     77      11.3123      0.00000
     78      11.3173      0.00000
     79      11.3184      0.00000
     80      11.3217      0.00000
     81      11.5793      0.00000
     82      11.5848      0.00000
     83      11.5853      0.00000
     84      11.5873      0.00000

 soft charge-density along one line, spin component           1
         0         1         2         3         4         5         6         7         8         9
 total charge-density along one line

------------------------ aborting loop because EDIFF is reached ----------------------------------------

         DFTD3 V3.0 Rev 1
 IVDW         = 12
 DF pbe
 parameters
 VDW_S6       =    1.0000
 VDW_S8       =    0.7875
 VDW_A1       =    0.4289
 VDW_A2       =    4.4407
 k1-k3        =   16.0000    1.3333   -4.0000
 VDW_RADIUS   =   50.2022 A
 VDW_CNRADIUS =   21.1671 A
 Edisp (eV)   -4.67737

 E6    (eV) :    -3.3616
 E8    (eV) :    -1.3157
 % E8        : 28.13

  FORCE on cell =-STRESS in cart. coord.  units (eV):
  Direction    XX          YY          ZZ          XY          YZ          ZX
  Alpha Z   279.10932   279.10932   279.10932
  Ewald     899.62603   900.99780 -5203.22954     0.46783    -0.00104    -0.00592
  Hartree  1490.04511  1490.33564 -1309.56924     0.14826    -0.00025    -0.00117
  E(xc)    -467.30080  -467.29955  -485.02702    -0.00181    -0.00003     0.00005
  Local   -3997.52135 -3998.97703  4634.52640    -0.56833     0.00057     0.00651
  n-local  -112.50359  -112.60828  -102.55740    -0.09518    -0.00045     0.00093
  augment   -12.37154   -12.37331   -11.33827    -0.00044     0.00001    -0.00001
  Kinetic  1921.61334  1921.98258  2200.65575     0.44877     0.00683    -0.01202
  Fock        0.00000     0.00000     0.00000     0.00000     0.00000     0.00000
  vdW        -0.80443    -0.79618    -5.62160     0.00748     0.00000    -0.00001
  Total      -0.10791     0.37100    -3.05160     0.40659     0.00564    -0.01165
  in kB      -0.57834     1.98840   -16.35536     2.17914     0.03020    -0.06241

 VOLUME and BASIS-vectors are now :
  energy-cutoff  :      600.00
  volume of cell :      298.94
      direct lattice vectors                 reciprocal lattice vectors
     4.932874498 -0.001919286  0.000000000     0.202767147  0.117172881  0.000000000
    -2.468099399  4.271034986  0.000000000     0.000091118  0.234187941  0.000000000
     0.000000000  0.000000000 14.191946558     0.000000000  0.000000000  0.070462498

  length of vectors
     4.932874871  4.932874871 14.191946558     0.234187958  0.234187958  0.070462498

 FORCES acting on ions
    electron-ion (+dipol)            ewald-force                    non-local-force                 convergence-correction
   -.972E-01 0.108E+00 -.330E+00   0.116E+00 -.109E+00 0.329E+00   0.572E-02 -.775E-03 -.954E-02   -.273E-07 -.562E-07 -.139E-04
   -.394E+00 0.100E+00 -.857E+00   0.410E+00 -.100E+00 0.889E+00   -.182E-01 -.101E-02 -.793E-01   -.256E-08 -.548E-07 -.138E-04
   0.148E+00 0.420E+00 -.853E+00   -.184E+00 -.451E+00 0.885E+00   -.987E-02 0.397E-02 -.789E-01   -.205E-07 -.649E-07 -.138E-04
   0.137E+00 -.199E+00 -.859E+00   -.172E+00 0.228E+00 0.892E+00   -.107E-01 -.513E-02 -.794E-01   -.191E-07 -.451E-07 -.138E-04
   -.195E+00 0.106E+00 0.914E-01   0.189E+00 -.109E+00 -.913E-01   -.136E-02 -.128E-02 0.787E-03   -.693E-07 0.349E-07 0.138E-04
   -.195E+00 0.106E+00 0.917E-01   0.189E+00 -.109E+00 -.915E-01   -.136E-02 -.128E-02 0.764E-03   -.672E-07 0.329E-07 0.138E-04
   -.195E+00 0.106E+00 0.917E-01   0.189E+00 -.109E+00 -.915E-01   -.136E-02 -.128E-02 0.756E-03   -.662E-07 0.326E-07 0.138E-04
   -.195E+00 0.106E+00 0.917E-01   0.189E+00 -.109E+00 -.915E-01   -.136E-02 -.129E-02 0.767E-03   -.705E-07 0.341E-07 0.138E-04
   0.177E+00 -.105E+00 0.909E-01   -.173E+00 0.102E+00 -.909E-01   0.215E-03 -.709E-03 -.121E-02   -.436E-08 -.302E-07 0.146E-04
   0.208E+00 -.102E+00 0.101E+00   -.204E+00 0.984E-01 -.101E+00   0.213E-03 -.691E-03 -.967E-03   -.809E-08 -.313E-07 0.146E-04
   0.189E+00 -.130E+00 0.959E-01   -.186E+00 0.127E+00 -.960E-01   0.197E-03 -.696E-03 -.109E-02   -.522E-08 -.283E-07 0.146E-04
   0.194E+00 -.113E+00 0.768E-01   -.191E+00 0.109E+00 -.770E-01   0.236E-03 -.691E-03 -.525E-03   -.720E-08 -.301E-07 0.146E-04
   0.206E+00 -.118E+00 0.101E+00   -.204E+00 0.120E+00 -.102E+00   -.262E-03 0.823E-03 -.869E-03   0.885E-07 -.589E-08 -.145E-04
   0.175E+00 -.115E+00 0.906E-01   -.173E+00 0.116E+00 -.906E-01   -.255E-03 0.856E-03 -.110E-02   0.881E-07 -.731E-08 -.145E-04
   0.188E+00 -.898E-01 0.958E-01   -.186E+00 0.909E-01 -.960E-01   -.288E-03 0.825E-03 -.985E-03   0.897E-07 -.361E-08 -.145E-04
   0.193E+00 -.108E+00 0.766E-01   -.191E+00 0.109E+00 -.769E-01   -.187E-03 0.821E-03 -.408E-03   0.869E-07 -.369E-08 -.145E-04
   -.547E+00 -.104E+00 0.188E+01   0.639E+00 0.106E+00 -.193E+01   0.828E-01 0.120E-02 0.181E+00   0.459E-07 0.520E-07 -.139E-04
   0.359E+00 -.107E+00 -.392E+00   -.396E+00 0.109E+00 0.375E+00   -.246E-01 0.123E-02 0.242E-01   -.655E-08 0.533E-07 -.139E-04
   0.193E+00 -.203E+00 -.393E+00   -.206E+00 0.218E+00 0.375E+00   -.143E-01 0.726E-02 0.243E-01   0.187E-07 0.667E-07 -.139E-04
   0.193E+00 -.106E-01 -.393E+00   -.206E+00 -.922E-03 0.376E+00   -.144E-01 -.461E-02 0.242E-01   0.204E-07 0.365E-07 -.139E-04
   0.194E+00 -.106E+00 0.919E-01   -.188E+00 0.109E+00 -.918E-01   0.854E-03 0.152E-02 -.316E-03   0.730E-07 -.368E-07 0.138E-04
   0.194E+00 -.106E+00 0.915E-01   -.188E+00 0.109E+00 -.914E-01   0.857E-03 0.152E-02 -.194E-03   0.710E-07 -.350E-07 0.138E-04
   0.194E+00 -.106E+00 0.915E-01   -.188E+00 0.109E+00 -.914E-01   0.855E-03 0.152E-02 -.195E-03   0.707E-07 -.354E-07 0.138E-04
   0.194E+00 -.106E+00 0.915E-01   -.188E+00 0.109E+00 -.914E-01   0.855E-03 0.152E-02 -.193E-03   0.732E-07 -.362E-07 0.138E-04
   -.175E+00 0.101E+00 0.101E+00   0.173E+00 -.982E-01 -.101E+00   0.227E-03 0.394E-03 0.237E-03   0.936E-08 0.297E-07 0.146E-04
   -.206E+00 0.104E+00 0.908E-01   0.204E+00 -.101E+00 -.908E-01   0.457E-03 0.461E-03 0.138E-04   0.120E-07 0.290E-07 0.146E-04
   -.193E+00 0.130E+00 0.960E-01   0.191E+00 -.127E+00 -.962E-01   0.283E-03 0.228E-03 0.146E-03   0.114E-07 0.256E-07 0.146E-04
   -.188E+00 0.112E+00 0.770E-01   0.186E+00 -.109E+00 -.771E-01   0.411E-03 0.363E-03 0.121E-03   0.100E-07 0.274E-07 0.146E-04
   -.204E+00 0.114E+00 0.904E-01   0.204E+00 -.116E+00 -.905E-01   0.115E-02 -.133E-02 0.212E-05   -.988E-07 0.140E-07 -.145E-04
   -.173E+00 0.118E+00 0.101E+00   0.173E+00 -.119E+00 -.102E+00   0.910E-03 -.127E-02 0.420E-03   -.975E-07 0.179E-07 -.145E-04
   -.191E+00 0.886E-01 0.960E-01   0.191E+00 -.907E-01 -.962E-01   0.972E-03 -.109E-02 0.254E-03   -.101E-06 0.104E-07 -.145E-04
   -.186E+00 0.107E+00 0.768E-01   0.186E+00 -.109E+00 -.769E-01   0.112E-02 -.124E-02 0.241E-03   -.949E-07 0.116E-07 -.145E-04
   0.241E-03 -.128E-03 -.306E-02   0.231E-13 0.329E-13 -.777E-13   -.252E-03 0.127E-03 0.304E-02   0.249E-08 0.388E-08 0.130E-06

 POSITION                                       TOTAL-FORCE (eV/Angst)
      2.46376      0.00059      1.77399         0.023878     -0.001702     -0.011399
      4.93020     -0.00037      1.77399        -0.002029     -0.001030     -0.047153
      1.22971      2.13610      1.77399        -0.045764     -0.026845     -0.047501
      3.69615      2.13514      1.77399        -0.045414      0.023327     -0.046868
      2.46376      0.00059      8.86997        -0.008309     -0.003736      0.000925
      4.93020     -0.00037      8.86997        -0.008309     -0.003736      0.000919
      1.22971      2.13610      8.86997        -0.008309     -0.003736      0.000912
      3.69615      2.13514      8.86997        -0.008311     -0.003734      0.000921
     -1.23137      2.13397      5.32198         0.003741     -0.004474     -0.001137
      1.23507      2.13301      5.32198         0.003678     -0.004487     -0.001211
     -2.46542      4.26949      5.32198         0.003718     -0.004459     -0.001168
      0.00102      4.26853      5.32198         0.003650     -0.004475     -0.000760
     -1.23137      2.13397     12.41795         0.001625      0.001951     -0.001200
      1.23507      2.13301     12.41795         0.001689      0.001806     -0.001109
     -2.46542      4.26949     12.41795         0.001776      0.001879     -0.001151
      0.00102      4.26853     12.41795         0.001607      0.001887     -0.000731
     -0.00641      1.42485      1.76455         0.176844      0.002637      0.135215
      2.46331      1.42389      1.77399        -0.062267      0.003232      0.007500
     -1.23718      3.56036      1.77399        -0.027936      0.023115      0.007425
      1.22926      3.55940      1.77399        -0.027844     -0.016741      0.007638
     -0.00313      1.42485      8.86997         0.006953      0.004359     -0.000197
      2.46331      1.42389      8.86997         0.006952      0.004360     -0.000093
     -1.23718      3.56036      8.86997         0.006952      0.004358     -0.000093
      1.22926      3.55940      8.86997         0.006952      0.004359     -0.000094
      1.23552      0.70971      5.32198        -0.001904      0.003437      0.000015
      3.70195      0.70875      5.32198        -0.002167      0.003436      0.000000
      0.00147      2.84523      5.32198        -0.002037      0.003660      0.000025
      2.46790      2.84427      5.32198        -0.002076      0.003522      0.000147
      1.23552      0.70971     12.41795         0.000514     -0.002948     -0.000092
      3.70195      0.70875     12.41795         0.000791     -0.002977      0.000100
      0.00147      2.84523     12.41795         0.000673     -0.003189      0.000044
      2.46790      2.84427     12.41795         0.000681     -0.003054      0.000173
    total drift:                               -0.000011     -0.000000     -0.000021

  FREE ENERGIE OF THE ION-ELECTRON SYSTEM (eV)
  free  energy   TOTEN  =      -299.55278199 eV

  energy  without entropy=     -299.55278199  energy(sigma->0) =     -299.55278199

 BZINTS: Fermi energy:  4.200400;128.000000 electrons
         Band energy:-628.850996;  BLOECHL correction: -0.000004