 vasp.5.3.5 31Mar14 (build Nov 02 2014 15:17:37) complex

 executed on        ion-Intel-MKL date 2016.08.24  04:01:41

 INCAR:
 POTCAR:   PAW_PBE C 08Apr2002
 POTCAR:   PAW_PBE C 08Apr2002
   VRHFIN =C: s2p2

   TITEL  = PAW_PBE C 08Apr2002
   POMASS =   12.011; ZVAL   =    4.000    mass and valenz
   ENMAX  =  400.000; ENMIN  =  300.000 eV
   QCUT   =   -5.516; QGAM   =   11.032    optimization parameters

   Description
     l     E      TYP  RCUT    TYP  RCUT
     0   .000     23  1.200
     0   .000     23  1.200
     1   .000     23  1.500
     1  2.500     23  1.500
     2   .000      7  1.500

 PAW_PBE C 08Apr2002                    :

 POSCAR: CIF file
  positions in direct lattice
  velocities in cartesian coordinates
 exchange correlation table for  LEXCH =        8
   RHO(1)=    0.500       N(1)  =     2000
   RHO(2)=  100.500       N(2)  =     4000

 ion  position               nearest neighbor table
   1  1.000  0.000  0.250-   2 1.18   2 1.18   3 1.42   3 1.42   3 1.42   4 1.85   4 1.85   4 1.85
                             4 1.85   4 1.85   4 1.85
   2  0.000  1.000  0.750-   1 1.18   1 1.18   4 1.42   4 1.42   4 1.42   3 1.85   3 1.85   3 1.85
                             3 1.85   3 1.85   3 1.85
   3  0.333  0.667  0.250-   1 1.42   1 1.42   1 1.42   4 1.85   4 1.85   4 1.85   4 1.85   2 1.85
                             2 1.85   2 1.85   2 1.85   2 1.85   2 1.85   4 1.85   4 1.85
   4  0.667  0.333  0.750-   2 1.42   2 1.42   2 1.42   3 1.85   3 1.85   3 1.85   3 1.85   1 1.85
                             1 1.85   1 1.85   1 1.85   1 1.85   1 1.85   3 1.85   3 1.85

  LATTYP: Found a base centered orthorhombic cell.
 ALAT       =     2.4669628383
 B/A-ratio  =     1.7322311103
 C/A-ratio  =     0.9542137281

  Lattice vectors:

 A1 = (   2.4671554424,  -0.0001112000,   0.0000000000)
 A2 = (  -1.2336740232,   2.1365636881,   0.0000000000)
 A3 = (   0.0000000000,   0.0000000000,   2.3540098070)

Analysis of symmetry for initial positions (statically):
 Subroutine PRICEL returns:
 Original cell was already a primitive cell.

 Routine SETGRP: Setting up the symmetry group for a
 base centered orthorhombic supercell.

 Subroutine GETGRP returns: Found  8 space group operations
 (whereof  4 operations were pure point group operations)
 out of a pool of  8 trial point group operations.

The static configuration has the point symmetry C_2h.
 The point group associated with its full space group is D_2h.

Analysis of symmetry for dynamics (positions and initial velocities):
 Subroutine PRICEL returns:
 Original cell was already a primitive cell.

 Routine SETGRP: Setting up the symmetry group for a
 base centered orthorhombic supercell.

 Subroutine GETGRP returns: Found  8 space group operations
 (whereof  4 operations were pure point group operations)
 out of a pool of  8 trial point group operations.

The dynamic configuration has the point symmetry C_2h.
 The point group associated with its full space group is D_2h.

 KPOINTS: B4C B11C-CBC

Automatic generation of k-mesh.
Space group operators:
 irot       det(A)        alpha          n_x          n_y          n_z        tau_x        tau_y        tau_z
    1     1.000000     0.000001     1.000000     0.000000     0.000000     0.000000     0.000000     0.000000
    2    -1.000000     0.000001     1.000000     0.000000     0.000000     0.000000     0.000000     0.000000
    3     1.000000   180.000000    -0.500000    -0.866025     0.000000     0.000000     0.000000     0.000000
    4    -1.000000   180.000000    -0.500000    -0.866025     0.000000     0.000000     0.000000     0.000000
    5     1.000000   180.000000     0.000000     0.000000     1.000000     0.000000     0.000000     0.500000
    6    -1.000000   180.000000     0.000000     0.000000     1.000000     0.000000     0.000000     0.500000
    7     1.000000   179.999999     0.866025    -0.500000     0.000000     0.000000     0.000000     0.500000
    8    -1.000000   179.999999     0.866025    -0.500000     0.000000     0.000000     0.000000     0.500000

 Subroutine IBZKPT returns following result:

 Found    455 irreducible k-points:

 Following reciprocal coordinates:
            Coordinates               Weight
  0.000000  0.000000  0.000000      1.000000
  0.055556  0.000000  0.000000      4.000000
  0.111111  0.000000  0.000000      4.000000
  0.166667  0.000000  0.000000      4.000000
  0.222222  0.000000  0.000000      4.000000
  0.277778  0.000000  0.000000      4.000000
  0.333333  0.000000  0.000000      4.000000
  0.388889  0.000000  0.000000      4.000000
  0.444444  0.000000  0.000000      4.000000
  0.500000  0.000000  0.000000      2.000000
  0.055556  0.055556  0.000000      2.000000
  0.111111  0.055556  0.000000      4.000000
  0.166667  0.055556  0.000000      4.000000
  0.222222  0.055556  0.000000      4.000000
  0.277778  0.055556  0.000000      4.000000
  0.333333  0.055556  0.000000      4.000000
  0.388889  0.055556  0.000000      4.000000
  0.444444  0.055556  0.000000      4.000000
  0.500000  0.055556  0.000000      4.000000
 -0.444444  0.055556  0.000000      4.000000
 -0.388889  0.055556  0.000000      4.000000
 -0.333333  0.055556  0.000000      4.000000
 -0.277778  0.055556  0.000000      4.000000
 -0.222222  0.055556  0.000000      4.000000
 -0.166667  0.055556  0.000000      4.000000
 -0.111111  0.055556  0.000000      4.000000
 -0.055556  0.055556  0.000000      2.000000
  0.111111  0.111111  0.000000      2.000000
  0.166667  0.111111  0.000000      4.000000
  0.222222  0.111111  0.000000      4.000000
  0.277778  0.111111  0.000000      4.000000
  0.333333  0.111111  0.000000      4.000000
  0.388889  0.111111  0.000000      4.000000
  0.444444  0.111111  0.000000      4.000000
  0.500000  0.111111  0.000000      4.000000
 -0.444444  0.111111  0.000000      4.000000
 -0.388889  0.111111  0.000000      4.000000
 -0.333333  0.111111  0.000000      4.000000
 -0.277778  0.111111  0.000000      4.000000
 -0.222222  0.111111  0.000000      4.000000
 -0.166667  0.111111  0.000000      4.000000
 -0.111111  0.111111  0.000000      2.000000
  0.166667  0.166667  0.000000      2.000000
  0.222222  0.166667  0.000000      4.000000
  0.277778  0.166667  0.000000      4.000000
  0.333333  0.166667  0.000000      4.000000
  0.388889  0.166667  0.000000      4.000000
  0.444444  0.166667  0.000000      4.000000
  0.500000  0.166667  0.000000      4.000000
 -0.444444  0.166667  0.000000      4.000000
 -0.388889  0.166667  0.000000      4.000000
 -0.333333  0.166667  0.000000      4.000000
 -0.277778  0.166667  0.000000      4.000000
 -0.222222  0.166667  0.000000      4.000000
 -0.166667  0.166667  0.000000      2.000000
  0.222222  0.222222  0.000000      2.000000
  0.277778  0.222222  0.000000      4.000000
  0.333333  0.222222  0.000000      4.000000
  0.388889  0.222222  0.000000      4.000000
  0.444444  0.222222  0.000000      4.000000
[...]
  0.388889  0.333333  0.500000      4.000000
  0.444444  0.333333  0.500000      4.000000
  0.500000  0.333333  0.500000      4.000000
 -0.444444  0.333333  0.500000      4.000000
 -0.388889  0.333333  0.500000      4.000000
 -0.333333  0.333333  0.500000      2.000000
  0.388889  0.388889  0.500000      2.000000
  0.444444  0.388889  0.500000      4.000000
  0.500000  0.388889  0.500000      4.000000
 -0.444444  0.388889  0.500000      4.000000
 -0.388889  0.388889  0.500000      2.000000
  0.444444  0.444444  0.500000      2.000000
  0.500000  0.444444  0.500000      4.000000
 -0.444444  0.444444  0.500000      2.000000
  0.500000  0.500000  0.500000      1.000000

 Following cartesian coordinates:
            Coordinates               Weight
  0.000000  0.000000  0.000000      1.000000
  0.022519  0.013002  0.000000      4.000000
  0.045037  0.026005  0.000000      4.000000
  0.067556  0.039007  0.000000      4.000000
  0.090075  0.052010  0.000000      4.000000
  0.112593  0.065012  0.000000      4.000000
  0.135112  0.078015  0.000000      4.000000
  0.157631  0.091017  0.000000      4.000000
  0.180149  0.104020  0.000000      4.000000
  0.202668  0.117022  0.000000      2.000000
  0.022520  0.039005  0.000000      2.000000
  0.045038  0.052008  0.000000      4.000000
  0.067557  0.065010  0.000000      4.000000
  0.090076  0.078013  0.000000      4.000000
  0.112594  0.091015  0.000000      4.000000
  0.135113  0.104018  0.000000      4.000000
  0.157632  0.117020  0.000000      4.000000
  0.180150  0.130023  0.000000      4.000000
  0.202669  0.143025  0.000000      4.000000
 -0.180148 -0.078017  0.000000      4.000000
 -0.157629 -0.065015  0.000000      4.000000
 -0.135111 -0.052012  0.000000      4.000000
 -0.112592 -0.039010  0.000000      4.000000
 -0.090073 -0.026007  0.000000      4.000000
 -0.067555 -0.013005  0.000000      4.000000
 -0.045036 -0.000002  0.000000      4.000000
 -0.022517  0.013000  0.000000      2.000000
  0.045040  0.078011  0.000000      2.000000
  0.067558  0.091013  0.000000      4.000000
  0.090077  0.104016  0.000000      4.000000
  0.112596  0.117018  0.000000      4.000000
  0.135114  0.130021  0.000000      4.000000
  0.157633  0.143023  0.000000      4.000000
  0.180152  0.156026  0.000000      4.000000
  0.202670  0.169028  0.000000      4.000000
 -0.180147 -0.052014  0.000000      4.000000
 -0.157628 -0.039012  0.000000      4.000000
 -0.135110 -0.026009  0.000000      4.000000
 -0.112591 -0.013007  0.000000      4.000000
 -0.090072 -0.000004  0.000000      4.000000
 -0.067554  0.012998  0.000000      4.000000
 -0.045035  0.026001  0.000000      2.000000
  0.067559  0.117016  0.000000      2.000000
  0.090078  0.130019  0.000000      4.000000
  0.112597  0.143021  0.000000      4.000000
  0.135115  0.156024  0.000000      4.000000
  0.157634  0.169026  0.000000      4.000000
  0.180153  0.182029  0.000000      4.000000
  0.202671  0.195031  0.000000      4.000000
 -0.180146 -0.026011  0.000000      4.000000
 -0.157627 -0.013009  0.000000      4.000000
 -0.135108 -0.000006  0.000000      4.000000
 -0.112590  0.012996  0.000000      4.000000
 -0.090071  0.025999  0.000000      4.000000
 -0.067552  0.039001  0.000000      2.000000
  0.090079  0.156022  0.000000      2.000000
  0.112598  0.169024  0.000000      4.000000
  0.135117  0.182027  0.000000      4.000000
  0.157635  0.195029  0.000000      4.000000
  0.180154  0.208032  0.000000      4.000000
[...]
  0.157638  0.247035  0.212404      4.000000
  0.180156  0.260038  0.212404      4.000000
  0.202675  0.273040  0.212404      4.000000
 -0.180142  0.051998  0.212404      4.000000
 -0.157623  0.065000  0.212404      4.000000
 -0.135105  0.078003  0.212404      2.000000
  0.157639  0.273038  0.212404      2.000000
  0.180157  0.286041  0.212404      4.000000
  0.202676  0.299043  0.212404      4.000000
 -0.180141  0.078001  0.212404      4.000000
 -0.157622  0.091003  0.212404      2.000000
  0.180159  0.312044  0.212404      2.000000
  0.202677  0.325046  0.212404      4.000000
 -0.180140  0.104004  0.212404      2.000000
  0.202678  0.351049  0.212404      1.000000

 TETIRR: Found   3888 inequivalent tetrahedra from    15552

 I would recommend the setting:
[...]
 k-point 28 :   0.1111 0.1111 0.0000  plane waves:     419
 k-point 29 :   0.1667 0.1111 0.0000  plane waves:     416
 k-point 30 :   0.2222 0.1111 0.0000  plane waves:     413
 k-point 31 :   0.2778 0.1111 0.0000  plane waves:     412
 k-point 32 :   0.3333 0.1111 0.0000  plane waves:     415
 k-point 33 :   0.3889 0.1111 0.0000  plane waves:     417
 k-point 34 :   0.4444 0.1111 0.0000  plane waves:     415
 k-point 35 :   0.5000 0.1111 0.0000  plane waves:     417
 k-point 36 :  -0.4444 0.1111 0.0000  plane waves:     415
 k-point 37 :  -0.3889 0.1111 0.0000  plane waves:     412
 k-point 38 :  -0.3333 0.1111 0.0000  plane waves:     413
 k-point 39 :  -0.2778 0.1111 0.0000  plane waves:     416
 k-point 40 :  -0.2222 0.1111 0.0000  plane waves:     419
 k-point 41 :  -0.1667 0.1111 0.0000  plane waves:     410
 k-point 42 :  -0.1111 0.1111 0.0000  plane waves:     407
 k-point 43 :   0.1667 0.1667 0.0000  plane waves:     409
 k-point 44 :   0.2222 0.1667 0.0000  plane waves:     410
 k-point 45 :   0.2778 0.1667 0.0000  plane waves:     413
 k-point 46 :   0.3333 0.1667 0.0000  plane waves:     417
 k-point 47 :   0.3889 0.1667 0.0000  plane waves:     419
 k-point 48 :   0.4444 0.1667 0.0000  plane waves:     419
 k-point 49 :   0.5000 0.1667 0.0000  plane waves:     417
 k-point 50 :  -0.4444 0.1667 0.0000  plane waves:     413
 k-point 51 :  -0.3889 0.1667 0.0000  plane waves:     410
 k-point 52 :  -0.3333 0.1667 0.0000  plane waves:     409
 k-point 53 :  -0.2778 0.1667 0.0000  plane waves:     416
 k-point 54 :  -0.2222 0.1667 0.0000  plane waves:     413
 k-point 55 :  -0.1667 0.1667 0.0000  plane waves:     411
 k-point 56 :   0.2222 0.2222 0.0000  plane waves:     409
 k-point 57 :   0.2778 0.2222 0.0000  plane waves:     416
 k-point 58 :   0.3333 0.2222 0.0000  plane waves:     422
 k-point 59 :   0.3889 0.2222 0.0000  plane waves:     427
 k-point 60 :   0.4444 0.2222 0.0000  plane waves:     422
[...]
 k-point 85 :   0.5000 0.3889 0.0000  plane waves:     417
 k-point 86 :  -0.4444 0.3889 0.0000  plane waves:     416
 k-point 87 :  -0.3889 0.3889 0.0000  plane waves:     414
 k-point 88 :   0.4444 0.4444 0.0000  plane waves:     415
 k-point 89 :   0.5000 0.4444 0.0000  plane waves:     418
 k-point 90 :  -0.4444 0.4444 0.0000  plane waves:     418
 k-point 91 :   0.5000 0.5000 0.0000  plane waves:     416
 k-point 92 :   0.0000 0.0000 0.1250  plane waves:     405
 k-point 93 :   0.0556 0.0000 0.1250  plane waves:     404
 k-point 94 :   0.1111 0.0000 0.1250  plane waves:     407
 k-point 95 :   0.1667 0.0000 0.1250  plane waves:     408
 k-point 96 :   0.2222 0.0000 0.1250  plane waves:     411
 k-point 97 :   0.2778 0.0000 0.1250  plane waves:     416
 k-point 98 :   0.3333 0.0000 0.1250  plane waves:     418
 k-point 99 :   0.3889 0.0000 0.1250  plane waves:     413
 k-point ** :   0.4444 0.0000 0.1250  plane waves:     414
 k-point ** :   0.5000 0.0000 0.1250  plane waves:     416
 k-point ** :   0.0556 0.0556 0.1250  plane waves:     406
 k-point ** :   0.1111 0.0556 0.1250  plane waves:     410
 k-point ** :   0.1667 0.0556 0.1250  plane waves:     410
 k-point ** :   0.2222 0.0556 0.1250  plane waves:     413
 k-point ** :   0.2778 0.0556 0.1250  plane waves:     415
 k-point ** :   0.3333 0.0556 0.1250  plane waves:     416
 k-point ** :   0.3889 0.0556 0.1250  plane waves:     413
 k-point ** :   0.4444 0.0556 0.1250  plane waves:     415
 k-point ** :   0.5000 0.0556 0.1250  plane waves:     415
 k-point ** :  -0.4444 0.0556 0.1250  plane waves:     413
 k-point ** :  -0.3889 0.0556 0.1250  plane waves:     416
 k-point ** :  -0.3333 0.0556 0.1250  plane waves:     415
 k-point ** :  -0.2778 0.0556 0.1250  plane waves:     413
 k-point ** :  -0.2222 0.0556 0.1250  plane waves:     410
 k-point ** :  -0.1667 0.0556 0.1250  plane waves:     410
 k-point ** :  -0.1111 0.0556 0.1250  plane waves:     406
 k-point ** :  -0.0556 0.0556 0.1250  plane waves:     404
 k-point ** :   0.1111 0.1111 0.1250  plane waves:     412
 k-point ** :   0.1667 0.1111 0.1250  plane waves:     413
 k-point ** :   0.2222 0.1111 0.1250  plane waves:     414
 k-point ** :   0.2778 0.1111 0.1250  plane waves:     416
 k-point ** :   0.3333 0.1111 0.1250  plane waves:     415
 k-point ** :   0.3889 0.1111 0.1250  plane waves:     415
 k-point ** :   0.4444 0.1111 0.1250  plane waves:     417
 k-point ** :   0.5000 0.1111 0.1250  plane waves:     415
 k-point ** :  -0.4444 0.1111 0.1250  plane waves:     415
 k-point ** :  -0.3889 0.1111 0.1250  plane waves:     416
 k-point ** :  -0.3333 0.1111 0.1250  plane waves:     414
 k-point ** :  -0.2778 0.1111 0.1250  plane waves:     413
 k-point ** :  -0.2222 0.1111 0.1250  plane waves:     412
 k-point ** :  -0.1667 0.1111 0.1250  plane waves:     410
 k-point ** :  -0.1111 0.1111 0.1250  plane waves:     407
 k-point ** :   0.1667 0.1667 0.1250  plane waves:     415
 k-point ** :   0.2222 0.1667 0.1250  plane waves:     414
 k-point ** :   0.2778 0.1667 0.1250  plane waves:     415
 k-point ** :   0.3333 0.1667 0.1250  plane waves:     415
 k-point ** :   0.3889 0.1667 0.1250  plane waves:     419
 k-point ** :   0.4444 0.1667 0.1250  plane waves:     419
 k-point ** :   0.5000 0.1667 0.1250  plane waves:     415
 k-point ** :  -0.4444 0.1667 0.1250  plane waves:     415
 k-point ** :  -0.3889 0.1667 0.1250  plane waves:     414
 k-point ** :  -0.3333 0.1667 0.1250  plane waves:     415
 k-point ** :  -0.2778 0.1667 0.1250  plane waves:     413
 k-point ** :  -0.2222 0.1667 0.1250  plane waves:     410
 k-point ** :  -0.1667 0.1667 0.1250  plane waves:     408
 k-point ** :   0.2222 0.2222 0.1250  plane waves:     419
 k-point ** :   0.2778 0.2222 0.1250  plane waves:     421
 k-point ** :   0.3333 0.2222 0.1250  plane waves:     422
 k-point ** :   0.3889 0.2222 0.1250  plane waves:     424
 k-point ** :   0.4444 0.2222 0.1250  plane waves:     422
 k-point ** :   0.5000 0.2222 0.1250  plane waves:     421
 k-point ** :  -0.4444 0.2222 0.1250  plane waves:     419
 k-point ** :  -0.3889 0.2222 0.1250  plane waves:     414
 k-point ** :  -0.3333 0.2222 0.1250  plane waves:     414
 k-point ** :  -0.2778 0.2222 0.1250  plane waves:     413
 k-point ** :  -0.2222 0.2222 0.1250  plane waves:     411
 k-point ** :   0.2778 0.2778 0.1250  plane waves:     422
 k-point ** :   0.3333 0.2778 0.1250  plane waves:     422
[...]
 k-point ** :   0.3889 0.3333 0.5000  plane waves:     420
 k-point ** :   0.4444 0.3333 0.5000  plane waves:     412
 k-point ** :   0.5000 0.3333 0.5000  plane waves:     412
 k-point ** :  -0.4444 0.3333 0.5000  plane waves:     416
 k-point ** :  -0.3889 0.3333 0.5000  plane waves:     414
 k-point ** :  -0.3333 0.3333 0.5000  plane waves:     410
 k-point ** :   0.3889 0.3889 0.5000  plane waves:     414
 k-point ** :   0.4444 0.3889 0.5000  plane waves:     412
 k-point ** :   0.5000 0.3889 0.5000  plane waves:     416
 k-point ** :  -0.4444 0.3889 0.5000  plane waves:     416
 k-point ** :  -0.3889 0.3889 0.5000  plane waves:     416
 k-point ** :   0.4444 0.4444 0.5000  plane waves:     414
 k-point ** :   0.5000 0.4444 0.5000  plane waves:     414
 k-point ** :  -0.4444 0.4444 0.5000  plane waves:     420
 k-point ** :   0.5000 0.5000 0.5000  plane waves:     412

 maximum and minimum number of plane-waves per node :       150      120

 maximum number of plane-waves:       435
 maximum index in each direction:
   IXMAX=    5   IYMAX=    4   IZMAX=    4
   IXMIN=   -5   IYMIN=   -5   IZMIN=   -5

 WARNING: aliasing errors must be expected set NGX to  22 to avoid them
 NGY is ok and might be reduce to  20
 NGZ is ok and might be reduce to  20
 aliasing errors are usually negligible using standard VASP settings
 and one can safely disregard these warnings

 parallel 3D FFT for wavefunctions:
    minimum data exchange during FFTs selected (reduces bandwidth)
 parallel 3D FFT for charge:
    minimum data exchange during FFTs selected (reduces bandwidth)

 Broyden mixing: mesh for mixing (old mesh)
   NGX =  9   NGY =  9   NGZ =  9
  (NGX  = 40   NGY  = 40   NGZ  = 40)
  gives a total of    729 points

 initial charge density was supplied:
 charge density of overlapping atoms calculated
 number of electron      16.0000000 magnetization
 keeping initial charge density in first step

 Maximum index for augmentation-charges         1395 (set IRDMAX)

 First call to EWALD:  gamma=   0.766
 Maximum number of real-space cells 3x 3x 3
 Maximum number of reciprocal cells 3x 3x 3

 FEWALD executed in parallel

----------------------------------------- Iteration    1(   1)  ---------------------------------------

 BZINTS: Fermi energy: 30.025159; 16.000000 electrons
         Band energy: 184.693740;  BLOECHL correction: -0.498804

 eigenvalue-minimisations  : 11000
 total energy-change (2. order) : 0.5738217E+02  (-0.1001686E+04)
 number of electron      16.0000000 magnetization
 augmentation part       16.0000000 magnetization

 Free energy of the ion-electron system (eV)
  alpha Z        PSCENC =       105.06608650
  Ewald energy   TEWEN  =      -869.82268085
  -Hartree energ DENC   =       -12.75326198
  -exchange      EXHF   =         0.00000000
  -V(xc)+E(xc)   XCENC  =        66.19905337
  PAW double counting   =       151.32577238     -155.92769107
  entropy T*S    EENTRO =         0.00000000
  eigenvalues    EBANDS =       184.69374005
  atomic energy  EATOM  =       588.60115103
  free energy    TOTEN  =        57.38216943 eV

  energy without entropy =       57.38216943  energy(sigma->0) =       57.38216943

[...]

 eigenvalue-minimisations  : 14048
 total energy-change (2. order) :-0.6102939E+02  (-0.5444298E+02)
 number of electron      16.0000000 magnetization
 augmentation part       16.0000000 magnetization

[...]

 Broyden mixing:
  rms(total) = 0.98026E+00    rms(broyden)= 0.98017E+00
  rms(prec ) = 0.32146E+01
  weight for this iteration     100.00

[...]

 eigenvalues of (default mixing * dielectric matrix)
  average eigenvalue GAMMA=   1.5231
  1.5231

[...]

 eigenvalue-minimisations  : 12144
 total energy-change (2. order) :-0.1520566E-04  (-0.4569679E-05)
 number of electron      15.9999998 magnetization
 augmentation part        0.4319250 magnetization

 Broyden mixing:
  rms(total) = 0.68185E-03    rms(broyden)= 0.68035E-03
  rms(prec ) = 0.19939E-02
  weight for this iteration     100.00

 eigenvalues of (default mixing * dielectric matrix)
  average eigenvalue GAMMA=   1.6537
  2.5833  2.0909  1.0475  1.1888  1.3581

[...]

----------------------------------------- Iteration    1(  11)  ---------------------------------------

 BZINTS: Fermi energy: 22.397273; 16.000000 electrons
         Band energy: 137.192879;  BLOECHL correction: -0.094804

 eigenvalue-minimisations  : 12416
 total energy-change (2. order) : 0.7225199E-06  (-0.6235469E-06)
 number of electron      15.9999998 magnetization
 augmentation part        0.4319250 magnetization

 Free energy of the ion-electron system (eV)
  alpha Z        PSCENC =       105.06608650
  Ewald energy   TEWEN  =      -869.82268085
  -Hartree energ DENC   =       -25.51295667
  -exchange      EXHF   =         0.00000000
  -V(xc)+E(xc)   XCENC  =        67.37711068
  PAW double counting   =       407.47030096     -413.28547686
  entropy T*S    EENTRO =         0.00000000
  eigenvalues    EBANDS =       137.19287925
  atomic energy  EATOM  =       588.60115103
  free energy    TOTEN  =        -2.91358597 eV

  energy without entropy =       -2.91358597  energy(sigma->0) =       -2.91358597

 average (electrostatic) potential at core
  the test charge radii are     0.6991
  (the norm of the test charge is              1.0000)
       1 -37.3698       2 -37.3698       3 -35.6738       4 -35.6738

 E-fermi :  22.3973     XC(G=0): -16.8353     alpha+bet :-32.3624

 k-point     1 :       0.0000    0.0000    0.0000
  band No.  band energies     occupation
      1     -11.0045      2.00000
      2       3.0886      2.00000
      3       8.6273      2.00000
      4       8.6329      2.00000
      5      14.6149      2.00000
      6      14.6163      2.00000
      7      16.2524      2.00000
      8      21.1950      2.00000
      9      22.5408     -0.07098
     10      27.5490      0.00000
     11      30.1627      0.00000
     12      30.1655      0.00000

[...]

 k-point   455 :       0.5000    0.5000    0.5000
  band No.  band energies     occupation
      1      -1.3739      2.00000
      2      -1.3739      2.00000
      3       1.9531      2.00000
      4       1.9531      2.00000
      5       9.9557      2.00000
      6       9.9557      2.00000
      7      17.5598      2.00000
      8      17.5598      2.00000
      9      29.4379      0.00000
     10      29.4379      0.00000
     11      36.5066      0.00000
     12      36.5068      0.00000

 soft charge-density along one line, spin component           1
         0         1         2         3         4         5         6         7         8         9
 total charge-density along one line

------------------------ aborting loop because EDIFF is reached ----------------------------------------

         DFTD3 V3.0 Rev 1
 IVDW         = 11
 DF pbe
 parameters
 VDW_S6       =    1.0000
 VDW_S8       =    0.7220
 VDW_SR       =    1.2170
 rs18     =    1.0000
 alpha6   =   14.0000
 alpha8   =   16.0000
 k1-k3    =   16.0000    1.3333   -4.0000
 VDW_RADIUS   =   50.2022 A
 VDW_CNRADIUS =   21.1671 A
 Edisp (eV)   -0.81292

 E6    (eV) :    -0.4861
 E8    (eV) :    -0.3268
 % E8        : 40.20

  FORCE on cell =-STRESS in cart. coord.  units (eV):
  Direction    XX          YY          ZZ          XY          YZ          ZX
  Alpha Z   105.06609   105.06609   105.06609
  Ewald    -318.98310  -319.03364  -231.80705    -0.04377     0.00000     0.00000
  Hartree     4.66176     4.65398    16.20161    -0.00674    -0.00000    -0.00000
  E(xc)     -67.68290   -67.68294   -67.64762    -0.00003    -0.00000    -0.00000
  Local      24.26184    24.30892   -41.42484     0.04078    -0.00000    -0.00000
  n-local    -8.95105   -15.89427   -14.81484     2.00736    -0.49845     0.75466
  augment    -1.88541    -1.88532    -2.50250     0.00007     0.00000    -0.00000
  Kinetic   283.42746   342.83959   334.71001   -17.16682     5.82831    -6.98279
  Fock        0.00000     0.00000     0.00000     0.00000     0.00000     0.00000
  vdW        -0.78790    -0.78792    -0.85593    -0.00002     0.00000    -0.00000
  Total      45.36685    45.34440    96.92492    -0.01945    -0.00000    -0.00000
  in kB    5857.87268  5854.97338 12515.16885    -2.51087    -0.00000    -0.00000

 VOLUME and BASIS-vectors are now :
  energy-cutoff  :      600.00
  volume of cell :       12.41
      direct lattice vectors                 reciprocal lattice vectors
     2.467155442 -0.000111200  0.000000000     0.405335638  0.234045000  0.000000000
    -1.233674023  2.136563688  0.000000000     0.000021096  0.468053460  0.000000000
     0.000000000  0.000000000  2.354009807     0.000000000  0.000000000  0.424807066

  length of vectors
     2.467155445  2.467155445  2.354009807     0.468053460  0.468053460  0.424807066

 FORCES acting on ions
    electron-ion (+dipol)            ewald-force                    non-local-force                 convergence-correction
   0.814E-03 -.491E-03 0.121E-12   -.367E-02 0.209E-02 0.309E-14   0.799E-04 -.461E-04 0.434E-18   0.297E-05 -.170E-05 0.164E-14
   -.832E-03 0.460E-03 0.912E-13   0.365E-02 -.213E-02 -.340E-14   -.799E-04 0.461E-04 -.434E-18   -.295E-05 0.172E-05 -.156E-14
   -.157E-01 0.906E-02 0.334E-12   0.258E-01 -.148E-01 -.162E-14   -.564E-02 0.326E-02 0.000E+00   -.912E-05 0.525E-05 0.151E-14
   0.157E-01 -.906E-02 0.482E-12   -.257E-01 0.149E-01 0.207E-14   0.564E-02 -.326E-02 0.000E+00   0.911E-05 -.527E-05 -.720E-15
   -.160E-04 -.277E-04 0.103E-11   -.867E-15 0.139E-16 0.139E-15   0.167E-15 -.555E-16 0.000E+00   0.777E-08 0.135E-07 0.873E-15

 POSITION                                       TOTAL-FORCE (eV/Angst)
      2.46715     -0.00011      0.58850        -0.002741      0.001583     -0.000000
     -1.23367      2.13656      1.76551         0.002741     -0.001583     -0.000000
     -0.00019      1.42441      0.58850         0.004402     -0.002542      0.000000
      1.23367      0.71204      1.76551        -0.004402      0.002542     -0.000000
    total drift:                               -0.000016     -0.000028      0.000000

  FREE ENERGIE OF THE ION-ELECTRON SYSTEM (eV)
  free  energy   TOTEN  =        -3.72651032 eV

  energy  without entropy=       -3.72651032  energy(sigma->0) =       -3.72651032

 reached required accuracy - stopping structural energy minimisation
 BZINTS: Fermi energy: 22.397273; 16.000000 electrons
         Band energy: 137.192879;  BLOECHL correction: -0.094804