 vasp.5.3.5 31Mar14 (build Nov 04 2014 22:34:45) complex

 executed on         atom-AMD-MKL date 2016.08.14  08:46:25

 INCAR:
 POTCAR:   PAW_PBE C 08Apr2002
 POTCAR:   PAW_PBE C 08Apr2002
   VRHFIN =C: s2p2

   TITEL  = PAW_PBE C 08Apr2002
   POMASS =   12.011; ZVAL   =    4.000    mass and valenz
   ENMAX  =  400.000; ENMIN  =  300.000 eV
   QCUT   =   -5.516; QGAM   =   11.032    optimization parameters

   Description
     l     E      TYP  RCUT    TYP  RCUT
     0   .000     23  1.200
     0   .000     23  1.200
     1   .000     23  1.500
     1  2.500     23  1.500
     2   .000      7  1.500

 PAW_PBE C 08Apr2002                    :

 POSCAR: CIF file
  positions in direct lattice
  velocities in cartesian coordinates
 exchange correlation table for  LEXCH =        8
   RHO(1)=    0.500       N(1)  =     2000
   RHO(2)=  100.500       N(2)  =     4000

 ion  position               nearest neighbor table
   1  1.000  0.000  0.250-   3 1.42   3 1.43   3 1.43
   2  0.000  1.000  0.750-   4 1.42   4 1.43   4 1.43
   3  0.333  0.667  0.250-   1 1.42   1 1.43   1 1.43
   4  0.667  0.333  0.750-   2 1.42   2 1.43   2 1.43

  LATTYP: Found a base centered orthorhombic cell.
 ALAT       =     2.4712325073
 B/A-ratio  =     1.7272928269
 C/A-ratio  =     3.4094148617

  Lattice vectors:

 A1 = (   2.4661411109,   0.0029395191,   0.0000000000)
 A2 = (  -1.2305248572,   2.1372106108,   0.0000000000)
 A3 = (   0.0000000000,   0.0000000000,   8.4254568370)

Analysis of symmetry for initial positions (statically):
 Subroutine PRICEL returns:
 Original cell was already a primitive cell.

 Routine SETGRP: Setting up the symmetry group for a
 base centered orthorhombic supercell.

 Subroutine GETGRP returns: Found  8 space group operations
 (whereof  4 operations were pure point group operations)
 out of a pool of  8 trial point group operations.

The static configuration has the point symmetry C_2h.
 The point group associated with its full space group is D_2h.

Analysis of symmetry for dynamics (positions and initial velocities):
 Subroutine PRICEL returns:
 Original cell was already a primitive cell.

 Routine SETGRP: Setting up the symmetry group for a
 base centered orthorhombic supercell.

 Subroutine GETGRP returns: Found  8 space group operations
 (whereof  4 operations were pure point group operations)
 out of a pool of  8 trial point group operations.

The dynamic configuration has the point symmetry C_2h.
 The point group associated with its full space group is D_2h.

 KPOINTS: B4C B11C-CBC

Automatic generation of k-mesh.
Space group operators:
 irot       det(A)        alpha          n_x          n_y          n_z        tau_x        tau_y        tau_z
    1     1.000000     0.000001     1.000000     0.000000     0.000000     0.000000     0.000000     0.000000
    2    -1.000000     0.000001     1.000000     0.000000     0.000000     0.000000     0.000000     0.000000
    3     1.000000   179.999999    -0.500000    -0.866025     0.000000     0.000000     0.000000     0.000000
    4    -1.000000   179.999999    -0.500000    -0.866025     0.000000     0.000000     0.000000     0.000000
    5     1.000000   179.999999     0.000000     0.000000     1.000000     0.000000     0.000000     0.500000
    6    -1.000000   179.999999     0.000000     0.000000     1.000000     0.000000     0.000000     0.500000
    7     1.000000   179.999999     0.866025    -0.500000     0.000000     0.000000     0.000000     0.500000
    8    -1.000000   179.999999     0.866025    -0.500000     0.000000     0.000000     0.000000     0.500000

 Subroutine IBZKPT returns following result:

 Found    455 irreducible k-points:

 Following reciprocal coordinates:
            Coordinates               Weight
  0.000000  0.000000  0.000000      1.000000
  0.055556  0.000000  0.000000      4.000000
  0.111111  0.000000  0.000000      4.000000
  0.166667  0.000000  0.000000      4.000000
  0.222222  0.000000  0.000000      4.000000
  0.277778 -0.000000  0.000000      4.000000
  0.333333  0.000000  0.000000      4.000000
  0.388889  0.000000  0.000000      4.000000
  0.444444  0.000000  0.000000      4.000000
  0.500000  0.000000  0.000000      2.000000
  0.055556  0.055556  0.000000      2.000000
  0.111111  0.055556  0.000000      4.000000
  0.166667  0.055556  0.000000      4.000000
  0.222222  0.055556  0.000000      4.000000
  0.277778  0.055556  0.000000      4.000000
  0.333333  0.055556  0.000000      4.000000
  0.388889  0.055556  0.000000      4.000000
  0.444444  0.055556  0.000000      4.000000
  0.500000  0.055556  0.000000      4.000000
 -0.444444  0.055556  0.000000      4.000000
 -0.388889  0.055556  0.000000      4.000000
 -0.333333  0.055556  0.000000      4.000000
 -0.277778  0.055556  0.000000      4.000000
 -0.222222  0.055556  0.000000      4.000000
 -0.166667  0.055556  0.000000      4.000000
 -0.111111  0.055556  0.000000      4.000000
 -0.055556  0.055556  0.000000      2.000000
  0.111111  0.111111  0.000000      2.000000
  0.166667  0.111111  0.000000      4.000000
  0.222222  0.111111  0.000000      4.000000
  0.277778  0.111111  0.000000      4.000000
  0.333333  0.111111  0.000000      4.000000
  0.388889  0.111111  0.000000      4.000000
  0.444444  0.111111  0.000000      4.000000
  0.500000  0.111111  0.000000      4.000000
 -0.444444  0.111111  0.000000      4.000000
 -0.388889  0.111111  0.000000      4.000000
 -0.333333  0.111111  0.000000      4.000000
 -0.277778  0.111111  0.000000      4.000000
 -0.222222  0.111111  0.000000      4.000000
 -0.166667  0.111111  0.000000      4.000000
 -0.111111  0.111111  0.000000      2.000000
  0.166667  0.166667  0.000000      2.000000
  0.222222  0.166667  0.000000      4.000000
  0.277778  0.166667  0.000000      4.000000
  0.333333  0.166667  0.000000      4.000000
  0.388889  0.166667  0.000000      4.000000
  0.444444  0.166667  0.000000      4.000000
  0.500000  0.166667  0.000000      4.000000
 -0.444444  0.166667  0.000000      4.000000
 -0.388889  0.166667  0.000000      4.000000
 -0.333333  0.166667  0.000000      4.000000
 -0.277778  0.166667  0.000000      4.000000
 -0.222222  0.166667  0.000000      4.000000
 -0.166667  0.166667  0.000000      2.000000
  0.222222  0.222222  0.000000      2.000000
  0.277778  0.222222  0.000000      4.000000
  0.333333  0.222222  0.000000      4.000000
  0.388889  0.222222  0.000000      4.000000
  0.444444  0.222222  0.000000      4.000000
[...]
  0.388889  0.333333  0.500000      4.000000
  0.444444  0.333333  0.500000      4.000000
  0.500000  0.333333  0.500000      4.000000
 -0.444444  0.333333  0.500000      4.000000
 -0.388889  0.333333  0.500000      4.000000
 -0.333333  0.333333  0.500000      2.000000
  0.388889  0.388889  0.500000      2.000000
  0.444444  0.388889  0.500000      4.000000
  0.500000  0.388889  0.500000      4.000000
 -0.444444  0.388889  0.500000      4.000000
 -0.388889  0.388889  0.500000      2.000000
  0.444444  0.444444  0.500000      2.000000
  0.500000  0.444444  0.500000      4.000000
 -0.444444  0.444444  0.500000      2.000000
  0.500000  0.500000  0.500000      1.000000

 Following cartesian coordinates:
            Coordinates               Weight
  0.000000  0.000000  0.000000      1.000000
  0.022512  0.012961  0.000000      4.000000
  0.045024  0.025923  0.000000      4.000000
  0.067536  0.038884  0.000000      4.000000
  0.090047  0.051846  0.000000      4.000000
  0.112559  0.064807  0.000000      4.000000
  0.135071  0.077769  0.000000      4.000000
  0.157583  0.090730  0.000000      4.000000
  0.180095  0.103692  0.000000      4.000000
  0.202607  0.116653  0.000000      2.000000
  0.022481  0.038938  0.000000      2.000000
  0.044993  0.051900  0.000000      4.000000
  0.067505  0.064861  0.000000      4.000000
  0.090017  0.077823  0.000000      4.000000
  0.112528  0.090784  0.000000      4.000000
  0.135040  0.103745  0.000000      4.000000
  0.157552  0.116707  0.000000      4.000000
  0.180064  0.129668  0.000000      4.000000
  0.202576  0.142630  0.000000      4.000000
 -0.180126 -0.077715  0.000000      4.000000
 -0.157614 -0.064754  0.000000      4.000000
 -0.135102 -0.051792  0.000000      4.000000
 -0.112590 -0.038831  0.000000      4.000000
 -0.090078 -0.025869  0.000000      4.000000
 -0.067567 -0.012908  0.000000      4.000000
 -0.045055  0.000054  0.000000      4.000000
 -0.022543  0.013015  0.000000      2.000000
  0.044962  0.077876  0.000000      2.000000
  0.067474  0.090838  0.000000      4.000000
  0.089986  0.103799  0.000000      4.000000
  0.112497  0.116761  0.000000      4.000000
  0.135009  0.129722  0.000000      4.000000
  0.157521  0.142684  0.000000      4.000000
  0.180033  0.155645  0.000000      4.000000
  0.202545  0.168607  0.000000      4.000000
 -0.180157 -0.051739  0.000000      4.000000
 -0.157645 -0.038777  0.000000      4.000000
 -0.135133 -0.025816  0.000000      4.000000
 -0.112621 -0.012854  0.000000      4.000000
 -0.090109  0.000107  0.000000      4.000000
 -0.067598  0.013069  0.000000      4.000000
 -0.045086  0.026030  0.000000      2.000000
  0.067443  0.116814  0.000000      2.000000
  0.089955  0.129776  0.000000      4.000000
  0.112466  0.142737  0.000000      4.000000
  0.134978  0.155699  0.000000      4.000000
  0.157490  0.168660  0.000000      4.000000
  0.180002  0.181622  0.000000      4.000000
  0.202514  0.194583  0.000000      4.000000
 -0.180188 -0.025762  0.000000      4.000000
 -0.157676 -0.012801  0.000000      4.000000
 -0.135164  0.000161  0.000000      4.000000
 -0.112652  0.013122  0.000000      4.000000
 -0.090140  0.026084  0.000000      4.000000
 -0.067629  0.039045  0.000000      2.000000
  0.089924  0.155752  0.000000      2.000000
  0.112436  0.168714  0.000000      4.000000
  0.134947  0.181675  0.000000      4.000000
  0.157459  0.194637  0.000000      4.000000
  0.179971  0.207598  0.000000      4.000000
[...]
  0.157397  0.246590  0.059344      4.000000
  0.179909  0.259551  0.059344      4.000000
  0.202421  0.272513  0.059344      4.000000
 -0.180281  0.052168  0.059344      4.000000
 -0.157769  0.065129  0.059344      4.000000
 -0.135257  0.078091  0.059344      2.000000
  0.157366  0.272567  0.059344      2.000000
  0.179878  0.285528  0.059344      4.000000
  0.202390  0.298490  0.059344      4.000000
 -0.180312  0.078144  0.059344      4.000000
 -0.157800  0.091106  0.059344      2.000000
  0.179847  0.311505  0.059344      2.000000
  0.202359  0.324466  0.059344      4.000000
 -0.180343  0.104121  0.059344      2.000000
  0.202328  0.350443  0.059344      1.000000

 TETIRR: Found   3888 inequivalent tetrahedra from    15552

 I would recommend the setting:
   dimension x,y,z NGX =    20 NGY =   20 NGZ =   67
 SYSTEM =  graphite
 POSCAR =  CIF file

 Startparameter for this run:
   NWRITE =      2    write-flag & timer
   PREC   = accura    normal or accurate (medium, high low for compatibility)
   ISTART =      0    job   : 0-new  1-cont  2-samecut
   ICHARG =      2    charge: 1-file 2-atom 10-const
   ISPIN  =      1    spin polarized calculation?
   LNONCOLLINEAR =      F non collinear calculations
   LSORBIT =      F    spin-orbit coupling
[...]
 k-point ** :   0.1111 0.1111 0.1250  plane waves:    1468
 k-point ** :   0.1667 0.1111 0.1250  plane waves:    1476
 k-point ** :   0.2222 0.1111 0.1250  plane waves:    1474
 k-point ** :   0.2778 0.1111 0.1250  plane waves:    1478
 k-point ** :   0.3333 0.1111 0.1250  plane waves:    1493
 k-point ** :   0.3889 0.1111 0.1250  plane waves:    1490
 k-point ** :   0.4444 0.1111 0.1250  plane waves:    1494
 k-point ** :   0.5000 0.1111 0.1250  plane waves:    1492
 k-point ** :  -0.4444 0.1111 0.1250  plane waves:    1489
 k-point ** :  -0.3889 0.1111 0.1250  plane waves:    1477
 k-point ** :  -0.3333 0.1111 0.1250  plane waves:    1474
 k-point ** :  -0.2778 0.1111 0.1250  plane waves:    1477
 k-point ** :  -0.2222 0.1111 0.1250  plane waves:    1469
 k-point ** :  -0.1667 0.1111 0.1250  plane waves:    1469
 k-point ** :  -0.1111 0.1111 0.1250  plane waves:    1465
 k-point ** :   0.1667 0.1667 0.1250  plane waves:    1474
 k-point ** :   0.2222 0.1667 0.1250  plane waves:    1474
 k-point ** :   0.2778 0.1667 0.1250  plane waves:    1486
 k-point ** :   0.3333 0.1667 0.1250  plane waves:    1493
 k-point ** :   0.3889 0.1667 0.1250  plane waves:    1496
 k-point ** :   0.4444 0.1667 0.1250  plane waves:    1496
 k-point ** :   0.5000 0.1667 0.1250  plane waves:    1491
 k-point ** :  -0.4444 0.1667 0.1250  plane waves:    1486
 k-point ** :  -0.3889 0.1667 0.1250  plane waves:    1476
 k-point ** :  -0.3333 0.1667 0.1250  plane waves:    1474
 k-point ** :  -0.2778 0.1667 0.1250  plane waves:    1477
 k-point ** :  -0.2222 0.1667 0.1250  plane waves:    1475
 k-point ** :  -0.1667 0.1667 0.1250  plane waves:    1471
 k-point ** :   0.2222 0.2222 0.1250  plane waves:    1488
 k-point ** :   0.2778 0.2222 0.1250  plane waves:    1492
 k-point ** :   0.3333 0.2222 0.1250  plane waves:    1497
 k-point ** :   0.3889 0.2222 0.1250  plane waves:    1504
 k-point ** :   0.4444 0.2222 0.1250  plane waves:    1500
 k-point ** :   0.5000 0.2222 0.1250  plane waves:    1493
 k-point ** :  -0.4444 0.2222 0.1250  plane waves:    1485
 k-point ** :  -0.3889 0.2222 0.1250  plane waves:    1475
 k-point ** :  -0.3333 0.2222 0.1250  plane waves:    1475
 k-point ** :  -0.2778 0.2222 0.1250  plane waves:    1477
 k-point ** :  -0.2222 0.2222 0.1250  plane waves:    1473
 k-point ** :   0.2778 0.2778 0.1250  plane waves:    1499
 k-point ** :   0.3333 0.2778 0.1250  plane waves:    1498
[...]
 k-point ** :   0.3889 0.3333 0.5000  plane waves:    1518
 k-point ** :   0.4444 0.3333 0.5000  plane waves:    1504
 k-point ** :   0.5000 0.3333 0.5000  plane waves:    1494
 k-point ** :  -0.4444 0.3333 0.5000  plane waves:    1482
 k-point ** :  -0.3889 0.3333 0.5000  plane waves:    1478
 k-point ** :  -0.3333 0.3333 0.5000  plane waves:    1474
 k-point ** :   0.3889 0.3889 0.5000  plane waves:    1500
 k-point ** :   0.4444 0.3889 0.5000  plane waves:    1494
 k-point ** :   0.5000 0.3889 0.5000  plane waves:    1488
 k-point ** :  -0.4444 0.3889 0.5000  plane waves:    1482
 k-point ** :  -0.3889 0.3889 0.5000  plane waves:    1484
 k-point ** :   0.4444 0.4444 0.5000  plane waves:    1492
 k-point ** :   0.5000 0.4444 0.5000  plane waves:    1488
 k-point ** :  -0.4444 0.4444 0.5000  plane waves:    1488
 k-point ** :   0.5000 0.5000 0.5000  plane waves:    1480

 maximum and minimum number of plane-waves per node :       516      471

 maximum number of plane-waves:      1524
 maximum index in each direction:
   IXMAX=    5   IYMAX=    4   IZMAX=   16
   IXMIN=   -5   IYMIN=   -5   IZMIN=  -17

 WARNING: aliasing errors must be expected set NGX to  22 to avoid them
 NGY is ok and might be reduce to  20
 NGZ is ok and might be reduce to  68
 aliasing errors are usually negligible using standard VASP settings
 and one can safely disregard these warnings

 parallel 3D FFT for wavefunctions:
    minimum data exchange during FFTs selected (reduces bandwidth)
 parallel 3D FFT for charge:
    minimum data exchange during FFTs selected (reduces bandwidth)

 Broyden mixing: mesh for mixing (old mesh)
   NGX =  9   NGY =  9   NGZ = 33
  (NGX  = 40   NGY  = 40   NGZ  =140)
  gives a total of   2673 points

 initial charge density was supplied:
 charge density of overlapping atoms calculated
 number of electron      16.0000000 magnetization
 keeping initial charge density in first step

 Maximum index for augmentation-charges         1371 (set IRDMAX)

 First call to EWALD:  gamma=   0.500
 Maximum number of real-space cells 4x 4x 1
 Maximum number of reciprocal cells 2x 2x 6

 FEWALD executed in parallel

----------------------------------------- Iteration    1(   1)  ---------------------------------------

 BZINTS: Fermi energy: 12.244125; 16.000000 electrons
         Band energy: -32.851408;  BLOECHL correction: -0.314369

 eigenvalue-minimisations  : 10928
 total energy-change (2. order) : 0.7095056E+02  (-0.8664055E+03)
 number of electron      16.0000000 magnetization
 augmentation part       16.0000000 magnetization

 Free energy of the ion-electron system (eV)
  alpha Z        PSCENC =        29.33696812
  Ewald energy   TEWEN  =      -303.84785508
  -Hartree energ DENC   =      -260.82670001
  -exchange      EXHF   =         0.00000000
  -V(xc)+E(xc)   XCENC  =        55.14032522
  PAW double counting   =       151.32577238     -155.92769107
  entropy T*S    EENTRO =         0.00000000
  eigenvalues    EBANDS =       -32.85140786
  atomic energy  EATOM  =       588.60115103
  free energy    TOTEN  =        70.95056274 eV

  energy without entropy =       70.95056274  energy(sigma->0) =       70.95056274

[...]

 BZINTS: Fermi energy:  1.459971; 16.000000 electrons
         Band energy:-137.428499;  BLOECHL correction: -0.000007

 eigenvalue-minimisations  : 15668
 total energy-change (2. order) :-0.1045771E+03  (-0.9482458E+02)
 number of electron      16.0000000 magnetization
 augmentation part       16.0000000 magnetization

[...]

 Broyden mixing:
  rms(total) = 0.77923E+00    rms(broyden)= 0.77914E+00
  rms(prec ) = 0.11150E+01
  weight for this iteration     100.00

[...]

 eigenvalues of (default mixing * dielectric matrix)
  average eigenvalue GAMMA=   2.0372
  2.0372

[...]

 average (electrostatic) potential at core
  the test charge radii are     0.6991
  (the norm of the test charge is              1.0000)
       1 -52.5586       2 -52.5586       3 -52.5567       4 -52.5567

 E-fermi :   2.8725     XC(G=0):  -8.7798     alpha+bet : -9.0364

 k-point     1 :       0.0000    0.0000    0.0000
  band No.  band energies     occupation
      1     -16.6387      2.00000
      2     -16.5984      2.00000
      3      -4.9787      2.00000
      4      -4.4561      2.00000
      5      -0.1805      2.00000
      6      -0.1793      2.00000
      7      -0.1262      2.00000
      8      -0.1250      2.00000
      9       6.0087      0.00000
     10       9.4230      0.00000
     11      11.1088      0.00000
     12      11.1588      0.00000

[...]

 soft charge-density along one line, spin component           1
         0         1         2         3         4         5         6         7         8         9
 total charge-density along one line

------------------------ aborting loop because EDIFF is reached ----------------------------------------

  FORCE on cell =-STRESS in cart. coord.  units (eV):
  Direction    XX          YY          ZZ          XY          YZ          ZX
  Alpha Z    29.33697    29.33697    29.33697
  Ewald     234.19258   232.82963  -770.87027    -1.18035    -0.00000     0.00000
  Hartree   280.77366   280.54550  -258.00003    -0.19760    -0.00000    -0.00000
  E(xc)     -58.33047   -58.33416   -60.65999    -0.00320    -0.00000     0.00000
  Local    -710.28050  -708.93037   799.64149     1.16925     0.00000     0.00000
  n-local   -14.43779   -13.64602   -12.78449    -0.19032     0.00116    -0.00114
  augment    -1.54263    -1.54064    -1.41377     0.00172     0.00000    -0.00000
  Kinetic   243.70356   236.19383   274.69522     2.12850    -0.02009     0.01856
  Fock        0.00000     0.00000     0.00000     0.00000     0.00000     0.00000
  Total       0.05688    -0.18676    -0.05487    -0.21100     0.00000     0.00000
  in kB       2.05079    -6.73354    -1.97841    -7.60746     0.00000     0.00000

 VOLUME and BASIS-vectors are now :
  energy-cutoff  :      600.00
  volume of cell :       44.44
      direct lattice vectors                 reciprocal lattice vectors
     2.466141111  0.002939519  0.000000000     0.405213711  0.233306695  0.000000000
    -1.230524857  2.137210611  0.000000000    -0.000557331  0.467578715  0.000000000
     0.000000000  0.000000000  8.425456837     0.000000000  0.000000000  0.118687926

[...]

 FORCES acting on ions
    electron-ion (+dipol)            ewald-force                    non-local-force                 convergence-correction
   0.813E+00 -.469E+00 -.119E-11   -.873E+00 0.504E+00 -.202E-13   -.352E-01 0.203E-01 0.271E-19   -.464E-04 0.268E-04 -.271E-12
   -.813E+00 0.469E+00 0.708E-13   0.873E+00 -.504E+00 0.202E-13   0.352E-01 -.203E-01 -.542E-19   0.464E-04 -.268E-04 0.166E-12
   -.813E+00 0.470E+00 0.798E-12   0.873E+00 -.504E+00 -.202E-13   0.350E-01 -.202E-01 0.000E+00   0.464E-04 -.268E-04 -.269E-12
   0.813E+00 -.470E+00 -.159E-11   -.873E+00 0.504E+00 0.202E-13   -.350E-01 0.202E-01 0.000E+00   -.464E-04 0.268E-04 0.163E-12
   -.683E-05 -.118E-04 -.191E-11   0.444E-14 -.488E-14 0.000E+00   0.000E+00 0.555E-16 -.271E-19   -.143E-10 -.247E-10 -.210E-12

 POSITION                                       TOTAL-FORCE (eV/Angst)
      2.46547      0.00333      2.10636        -0.095006      0.054852      0.000000
     -1.22985      2.13682      6.31909         0.095006     -0.054852     -0.000000
     -0.00094      1.42731      2.10636         0.094334     -0.054464     -0.000000
      1.23655      0.71284      6.31909        -0.094334      0.054464      0.000000
    total drift:                               -0.000007     -0.000012     -0.000000

  FREE ENERGIE OF THE ION-ELECTRON SYSTEM (eV)
  free  energy   TOTEN  =       -36.89324800 eV

  energy  without entropy=      -36.89324800  energy(sigma->0) =      -36.89324800

[...]

 d Force =-0.2686502E-02[-0.768E-02, 0.231E-02]  d Energy =-0.2668451E-02-0.181E-04
 d Force = 0.1676758E-02[-0.179E-01, 0.213E-01]  d Ewald  = 0.1559290E-02 0.117E-03

 Steepest descent step on ions:
 trial-energy change:    0.002668  1 .order    0.002687   -0.002306    0.007679
  (g-gl).g = 0.231E-02      g.g   = 0.231E-02  gl.gl    = 0.000E+00
 g(Force)  = 0.231E-02   g(Stress)= 0.000E+00 ortho     = 0.000E+00
 gamma     =   0.00000
 trial     =   1.00000
 opt step  =   0.23288  (harmonic =   0.23095) maximal distance =0.00106738
 next E    =   -36.893517   (d E  =  -0.00027)

 FEWALD executed in parallel

[...]

 eigenvalue-minimisations  : 13328
 total energy-change (2. order) : 0.1588231E-05  (-0.7074080E-05)
 number of electron      16.0000000 magnetization
 augmentation part        0.3827148 magnetization

 Broyden mixing:
  rms(total) = 0.40612E-03    rms(broyden)= 0.40608E-03
  rms(prec ) = 0.47564E-03
  weight for this iteration     100.00

 eigenvalues of (default mixing * dielectric matrix)
  average eigenvalue GAMMA=   1.7649
  2.4475  1.2387  1.6084

[...]

----------------------------------------- Iteration    3(   5)  ---------------------------------------

 BZINTS: Fermi energy:  2.874124; 16.000000 electrons
         Band energy:-100.016325;  BLOECHL correction:  0.000000

 eigenvalue-minimisations  : 11544
 total energy-change (2. order) :-0.2274825E-06  (-0.1761682E-06)
 number of electron      16.0000000 magnetization
 augmentation part        0.3827148 magnetization

 Free energy of the ion-electron system (eV)
  alpha Z        PSCENC =        29.33696812
  Ewald energy   TEWEN  =      -303.85172728
  -Hartree energ DENC   =      -303.31552460
  -exchange      EXHF   =         0.00000000
  -V(xc)+E(xc)   XCENC  =        57.51375035
  PAW double counting   =       277.02873933     -282.19052081
  entropy T*S    EENTRO =         0.00000000
  eigenvalues    EBANDS =      -100.01632467
  atomic energy  EATOM  =       588.60115103
  free energy    TOTEN  =       -36.89348854 eV

  energy without entropy =      -36.89348854  energy(sigma->0) =      -36.89348854

 average (electrostatic) potential at core
  the test charge radii are     0.6991
  (the norm of the test charge is              1.0000)
       1 -52.5587       2 -52.5587       3 -52.5568       4 -52.5568

 E-fermi :   2.8741     XC(G=0):  -8.7799     alpha+bet : -9.0364

[...]

 k-point   455 :       0.5000    0.5000    0.5000
  band No.  band energies     occupation
      1     -11.3604      2.00000
      2     -11.3604      2.00000
      3     -10.3393      2.00000
      4     -10.3393      2.00000
      5      -3.5546      2.00000
      6      -3.5546      2.00000
      7       0.5413      2.00000
      8       0.5413      2.00000
      9       4.5461      0.00000
     10       4.5461      0.00000
     11      10.1634      0.00000
     12      10.1634      0.00000

 soft charge-density along one line, spin component           1
         0         1         2         3         4         5         6         7         8         9
 total charge-density along one line

------------------------ aborting loop because EDIFF is reached ----------------------------------------

  FORCE on cell =-STRESS in cart. coord.  units (eV):
  Direction    XX          YY          ZZ          XY          YZ          ZX
  Alpha Z    29.33697    29.33697    29.33697
  Ewald     233.65313   233.36521  -770.87027    -0.24934    -0.00000     0.00000
  Hartree   280.69679   280.61895  -258.00008    -0.06741    -0.00000    -0.00000
  E(xc)     -58.33228   -58.33181   -60.65973     0.00041    -0.00000     0.00000
  Local    -709.76656  -709.43981   799.64252     0.28297     0.00000     0.00000
  n-local   -14.43781   -13.64563   -12.78405    -0.18164     0.00117    -0.00113
  augment    -1.54172    -1.54142    -1.41374     0.00026    -0.00000     0.00000
  Kinetic   243.74463   236.15025   274.69288     1.94276    -0.02050     0.01824
  Fock        0.00000     0.00000     0.00000     0.00000     0.00000     0.00000
  Total       0.03974    -0.17388    -0.05550    -0.18500     0.00000     0.00000
  in kB       1.43273    -6.26894    -2.00097    -6.66984     0.00000     0.00000

 VOLUME and BASIS-vectors are now :
  energy-cutoff  :      600.00
  volume of cell :       44.44
      direct lattice vectors                 reciprocal lattice vectors
     2.466141111  0.002939519  0.000000000     0.405213711  0.233306695  0.000000000
    -1.230524857  2.137210611  0.000000000    -0.000557331  0.467578715  0.000000000
     0.000000000  0.000000000  8.425456837     0.000000000  0.000000000  0.118687926

  length of vectors
     2.466142863  2.466142863  8.425456837     0.467579047  0.467579047  0.118687926

 FORCES acting on ions
    electron-ion (+dipol)            ewald-force                    non-local-force                 convergence-correction
   0.499E+00 -.288E+00 -.396E-11   -.493E+00 0.285E+00 -.202E-13   0.169E-02 -.975E-03 0.000E+00   0.784E-03 -.452E-03 -.163E-12
   -.499E+00 0.288E+00 0.350E-12   0.493E+00 -.285E+00 0.202E-13   -.169E-02 0.975E-03 0.000E+00   -.784E-03 0.452E-03 0.289E-12
   -.499E+00 0.288E+00 0.265E-12   0.493E+00 -.285E+00 -.202E-13   -.192E-02 0.111E-02 -.136E-19   -.783E-03 0.452E-03 -.162E-12
   0.499E+00 -.288E+00 -.331E-11   -.493E+00 0.285E+00 0.202E-13   0.192E-02 -.111E-02 0.136E-19   0.783E-03 -.452E-03 0.287E-12
   -.679E-05 -.118E-04 -.666E-11   0.461E-14 -.494E-14 0.000E+00   0.000E+00 -.167E-15 0.000E+00   0.933E-10 0.162E-09 0.251E-12

 POSITION                                       TOTAL-FORCE (eV/Angst)
      2.46440      0.00394      2.10636         0.007962     -0.004597     -0.000000
     -1.22879      2.13621      6.31909        -0.007962      0.004597      0.000000
      0.00012      1.42670      2.10636        -0.008716      0.005032      0.000000
      1.23549      0.71345      6.31909         0.008716     -0.005032      0.000000
    total drift:                               -0.000007     -0.000012     -0.000000

  FREE ENERGIE OF THE ION-ELECTRON SYSTEM (eV)
  free  energy   TOTEN  =       -36.89348854 eV

  energy  without entropy=      -36.89348854  energy(sigma->0) =      -36.89348854

 d Force = 0.3023238E-02[ 0.156E-03, 0.589E-02]  d Energy = 0.2908984E-02 0.114E-03
 d Force = 0.2259927E-02[-0.921E-02, 0.137E-01]  d Ewald  = 0.2312910E-02-0.530E-04

 reached required accuracy - stopping structural energy minimisation
 BZINTS: Fermi energy:  2.874124; 16.000000 electrons
         Band energy:-100.016325;  BLOECHL correction:  0.000000