 vasp.5.3.5 31Mar14 (build Nov 02 2014 15:17:37) complex

 executed on        ion-Intel-MKL date 2016.08.13  15:47:40

 INCAR:
 POTCAR:   PAW_PBE C 08Apr2002

 POTCAR:   PAW_PBE C 08Apr2002
   VRHFIN =C: s2p2

   TITEL  = PAW_PBE C 08Apr2002
   POMASS =   12.011; ZVAL   =    4.000    mass and valenz
   ENMAX  =  400.000; ENMIN  =  300.000 eV
   QCUT   =   -5.516; QGAM   =   11.032    optimization parameters

   Description
     l     E      TYP  RCUT    TYP  RCUT
     0   .000     23  1.200
     0   .000     23  1.200
     1   .000     23  1.500
     1  2.500     23  1.500
     2   .000      7  1.500

 PAW_PBE C 08Apr2002                    :

 POSCAR: C
  positions in direct lattice
 exchange correlation table for  LEXCH =        8
   RHO(1)=    0.500       N(1)  =     2000
   RHO(2)=  100.500       N(2)  =     4000

 ion  position               nearest neighbor table
   1  0.500  0.000  0.125-  20 1.42  18 1.42  19 1.42
   2  1.000  0.000  0.125-  19 1.42  20 1.42  17 1.42
   3  0.500  0.500  0.125-  18 1.42  20 1.42  17 1.43
   4  1.000  0.500  0.125-  17 1.42  19 1.42  18 1.42
   5  0.500  0.000  0.625-  24 1.42  22 1.42  23 1.42
   6  1.000  0.000  0.625-  23 1.42  21 1.42  24 1.42
   7  0.500  0.500  0.625-  22 1.42  24 1.42  21 1.42
   8  1.000  0.500  0.625-  21 1.42  23 1.42  22 1.42
   9  0.000  0.500  0.375-  28 1.42  27 1.42  26 1.42
  10  0.500  0.500  0.375-  27 1.42  28 1.42  25 1.42
  11  0.000  1.000  0.375-  26 1.42  25 1.42  28 1.42
  12  0.500  1.000  0.375-  25 1.42  26 1.42  27 1.42
  13  0.000  0.500  0.875-  32 1.42  31 1.42  30 1.42
  14  0.500  0.500  0.875-  31 1.42  32 1.42  29 1.42
  15  0.000  1.000  0.875-  30 1.42  29 1.42  32 1.42
  16  0.500  1.000  0.875-  29 1.42  30 1.42  31 1.42
  17  0.166  0.333  0.124-   4 1.42   2 1.42   3 1.43
  18  0.667  0.333  0.125-   3 1.42   1 1.42   4 1.42
  19  0.167  0.833  0.125-   2 1.42   4 1.42   1 1.42
  20  0.667  0.833  0.125-   1 1.42   3 1.42   2 1.42
  21  0.167  0.333  0.625-   8 1.42   6 1.42   7 1.42
  22  0.667  0.333  0.625-   7 1.42   5 1.42   8 1.42
  23  0.167  0.833  0.625-   6 1.42   8 1.42   5 1.42
  24  0.667  0.833  0.625-   5 1.42   7 1.42   6 1.42
  25  0.333  0.167  0.375-  12 1.42  11 1.42  10 1.42
  26  0.833  0.167  0.375-  11 1.42  12 1.42   9 1.42
  27  0.333  0.667  0.375-  10 1.42   9 1.42  12 1.42
  28  0.833  0.667  0.375-   9 1.42  10 1.42  11 1.42
  29  0.333  0.167  0.875-  16 1.42  15 1.42  14 1.42
  30  0.833  0.167  0.875-  15 1.42  16 1.42  13 1.42
  31  0.333  0.667  0.875-  14 1.42  13 1.42  16 1.42
  32  0.833  0.667  0.875-  13 1.42  14 1.42  15 1.42

  LATTYP: Found a base centered orthorhombic cell.
 ALAT       =     4.9339256766
 B/A-ratio  =     1.7322311103
 C/A-ratio  =     3.1352736810

  Lattice vectors:

 A1 = (   4.9343108848,  -0.0002224000,   0.0000000000)
 A2 = (  -2.4673480464,   4.2731273763,   0.0000000000)
 A3 = (   0.0000000000,   0.0000000000,  15.4692073180)

Analysis of symmetry for initial positions (statically):
 Subroutine PRICEL returns:
 Original cell was already a primitive cell.

 Routine SETGRP: Setting up the symmetry group for a
 base centered orthorhombic supercell.

 Subroutine GETGRP returns: Found  1 space group operations
 (whereof  1 operations were pure point group operations)
 out of a pool of  8 trial point group operations.

The static configuration has the point symmetry C_1 .

Analysis of symmetry for dynamics (positions and initial velocities):
 Subroutine PRICEL returns:
 Original cell was already a primitive cell.

 Routine SETGRP: Setting up the symmetry group for a
 base centered orthorhombic supercell.

 Subroutine GETGRP returns: Found  1 space group operations
 (whereof  1 operations were pure point group operations)
 out of a pool of  8 trial point group operations.

The dynamic configuration has the point symmetry C_1 .

 KPOINTS: B4C B11C-CBC

Automatic generation of k-mesh.
Space group operators:
 irot       det(A)        alpha          n_x          n_y          n_z        tau_x        tau_y        tau_z
    1     1.000000     0.000001     1.000000     0.000000     0.000000     0.000000     0.000000     0.000000

 Subroutine IBZKPT returns following result:

 Found    163 irreducible k-points:

 Following reciprocal coordinates:
            Coordinates               Weight
  0.000000  0.000000  0.000000      1.000000
  0.111111  0.000000  0.000000      2.000000
  0.222222  0.000000  0.000000      2.000000
  0.333333  0.000000  0.000000      2.000000
  0.444444  0.000000  0.000000      2.000000
 -0.000000  0.111111  0.000000      2.000000
  0.111111  0.111111  0.000000      2.000000
  0.222222  0.111111  0.000000      2.000000
  0.333333  0.111111  0.000000      2.000000
  0.444444  0.111111  0.000000      2.000000
 -0.444444  0.111111  0.000000      2.000000
 -0.333333  0.111111  0.000000      2.000000
 -0.222222  0.111111  0.000000      2.000000
 -0.111111  0.111111  0.000000      2.000000
 -0.000000  0.222222  0.000000      2.000000
  0.111111  0.222222  0.000000      2.000000
  0.222222  0.222222  0.000000      2.000000
  0.333333  0.222222  0.000000      2.000000
  0.444444  0.222222  0.000000      2.000000
 -0.444444  0.222222  0.000000      2.000000
 -0.333333  0.222222  0.000000      2.000000
 -0.222222  0.222222  0.000000      2.000000
 -0.111111  0.222222  0.000000      2.000000
 -0.000000  0.333333  0.000000      2.000000
  0.111111  0.333333  0.000000      2.000000
  0.222222  0.333333  0.000000      2.000000
  0.333333  0.333333  0.000000      2.000000
  0.444444  0.333333  0.000000      2.000000
 -0.444444  0.333333  0.000000      2.000000
 -0.333333  0.333333  0.000000      2.000000
 -0.222222  0.333333  0.000000      2.000000
 -0.111111  0.333333  0.000000      2.000000
 -0.000000  0.444444  0.000000      2.000000
  0.111111  0.444444  0.000000      2.000000
  0.222222  0.444444  0.000000      2.000000
  0.333333  0.444444  0.000000      2.000000
  0.444444  0.444444  0.000000      2.000000
 -0.444444  0.444444  0.000000      2.000000
 -0.333333  0.444444  0.000000      2.000000
 -0.222222  0.444444  0.000000      2.000000
 -0.111111  0.444444  0.000000      2.000000
  0.000000  0.000000  0.250000      2.000000
  0.111111  0.000000  0.250000      2.000000
  0.222222  0.000000  0.250000      2.000000
  0.333333  0.000000  0.250000      2.000000
  0.444444  0.000000  0.250000      2.000000
 -0.444444  0.000000  0.250000      2.000000
 -0.333333 -0.000000  0.250000      2.000000
 -0.222222  0.000000  0.250000      2.000000
 -0.111111 -0.000000  0.250000      2.000000
 -0.000000  0.111111  0.250000      2.000000
  0.111111  0.111111  0.250000      2.000000
  0.222222  0.111111  0.250000      2.000000
  0.333333  0.111111  0.250000      2.000000
  0.444444  0.111111  0.250000      2.000000
 -0.444444  0.111111  0.250000      2.000000
 -0.333333  0.111111  0.250000      2.000000
 -0.222222  0.111111  0.250000      2.000000
 -0.111111  0.111111  0.250000      2.000000
 -0.000000  0.222222  0.250000      2.000000
[...]
  0.333333  0.333333  0.500000      2.000000
  0.444444  0.333333  0.500000      2.000000
 -0.444444  0.333333  0.500000      2.000000
 -0.333333  0.333333  0.500000      2.000000
 -0.222222  0.333333  0.500000      2.000000
 -0.111111  0.333333  0.500000      2.000000
 -0.000000  0.444444  0.500000      2.000000
  0.111111  0.444444  0.500000      2.000000
  0.222222  0.444444  0.500000      2.000000
  0.333333  0.444444  0.500000      2.000000
  0.444444  0.444444  0.500000      2.000000
 -0.444444  0.444444  0.500000      2.000000
 -0.333333  0.444444  0.500000      2.000000
 -0.222222  0.444444  0.500000      2.000000
 -0.111111  0.444444  0.500000      2.000000

 Following cartesian coordinates:
            Coordinates               Weight
  0.000000  0.000000  0.000000      1.000000
  0.022519  0.013002  0.000000      2.000000
  0.045037  0.026005  0.000000      2.000000
  0.067556  0.039007  0.000000      2.000000
  0.090075  0.052010  0.000000      2.000000
  0.000001  0.026003  0.000000      2.000000
  0.022520  0.039005  0.000000      2.000000
  0.045038  0.052008  0.000000      2.000000
  0.067557  0.065010  0.000000      2.000000
  0.090076  0.078013  0.000000      2.000000
 -0.090073 -0.026007  0.000000      2.000000
 -0.067555 -0.013005  0.000000      2.000000
 -0.045036 -0.000002  0.000000      2.000000
 -0.022517  0.013000  0.000000      2.000000
  0.000002  0.052006  0.000000      2.000000
  0.022521  0.065008  0.000000      2.000000
  0.045040  0.078011  0.000000      2.000000
  0.067558  0.091013  0.000000      2.000000
  0.090077  0.104016  0.000000      2.000000
 -0.090072 -0.000004  0.000000      2.000000
 -0.067554  0.012998  0.000000      2.000000
 -0.045035  0.026001  0.000000      2.000000
 -0.022516  0.039003  0.000000      2.000000
  0.000004  0.078009  0.000000      2.000000
  0.022522  0.091011  0.000000      2.000000
  0.045041  0.104014  0.000000      2.000000
  0.067559  0.117016  0.000000      2.000000
  0.090078  0.130019  0.000000      2.000000
 -0.090071  0.025999  0.000000      2.000000
 -0.067552  0.039001  0.000000      2.000000
 -0.045034  0.052004  0.000000      2.000000
 -0.022515  0.065006  0.000000      2.000000
  0.000005  0.104012  0.000000      2.000000
  0.022523  0.117014  0.000000      2.000000
  0.045042  0.130017  0.000000      2.000000
  0.067561  0.143019  0.000000      2.000000
  0.090079  0.156022  0.000000      2.000000
 -0.090070  0.052002  0.000000      2.000000
 -0.067551  0.065004  0.000000      2.000000
 -0.045033  0.078007  0.000000      2.000000
 -0.022514  0.091009  0.000000      2.000000
  0.000000  0.000000  0.016161      2.000000
  0.022519  0.013002  0.016161      2.000000
  0.045037  0.026005  0.016161      2.000000
  0.067556  0.039007  0.016161      2.000000
  0.090075  0.052010  0.016161      2.000000
 -0.090075 -0.052010  0.016161      2.000000
 -0.067556 -0.039007  0.016161      2.000000
 -0.045037 -0.026005  0.016161      2.000000
 -0.022519 -0.013002  0.016161      2.000000
  0.000001  0.026003  0.016161      2.000000
  0.022520  0.039005  0.016161      2.000000
  0.045038  0.052008  0.016161      2.000000
  0.067557  0.065010  0.016161      2.000000
  0.090076  0.078013  0.016161      2.000000
 -0.090073 -0.026007  0.016161      2.000000
 -0.067555 -0.013005  0.016161      2.000000
 -0.045036 -0.000002  0.016161      2.000000
 -0.022517  0.013000  0.016161      2.000000
  0.000002  0.052006  0.016161      2.000000
[...]
  0.067559  0.117016  0.032322      2.000000
  0.090078  0.130019  0.032322      2.000000
 -0.090071  0.025999  0.032322      2.000000
 -0.067552  0.039001  0.032322      2.000000
 -0.045034  0.052004  0.032322      2.000000
 -0.022515  0.065006  0.032322      2.000000
  0.000005  0.104012  0.032322      2.000000
  0.022523  0.117014  0.032322      2.000000
  0.045042  0.130017  0.032322      2.000000
  0.067561  0.143019  0.032322      2.000000
  0.090079  0.156022  0.032322      2.000000
 -0.090070  0.052002  0.032322      2.000000
 -0.067551  0.065004  0.032322      2.000000
 -0.045033  0.078007  0.032322      2.000000
 -0.022514  0.091009  0.032322      2.000000

[...]

[...]

 eigenvalue-minimisations  : 19116
 total energy-change (2. order) :-0.1391054E-06  (-0.2100200E-06)
 number of electron     127.9999996 magnetization
 augmentation part        3.0637258 magnetization

 Free energy of the ion-electron system (eV)
  alpha Z        PSCENC =       255.81307994
  Ewald energy   TEWEN  =     -2935.68243611
  -Hartree energ DENC   =     -2024.53974478
  -exchange      EXHF   =         0.00000000
  -V(xc)+E(xc)   XCENC  =       460.32606751
  PAW double counting   =      2218.28952591    -2259.59311915
  entropy T*S    EENTRO =         0.00000000
  eigenvalues    EBANDS =      -718.52733854
  atomic energy  EATOM  =      4708.80920826
  free energy    TOTEN  =      -295.10475696 eV

  energy without entropy =     -295.10475696  energy(sigma->0) =     -295.10475696

 average (electrostatic) potential at core
  the test charge radii are     0.6991
  (the norm of the test charge is              1.0000)
       1 -51.9171       2 -51.9171       3 -51.9169       4 -51.9173       5 -51.9165
       6 -51.9165       7 -51.9165       8 -51.9165       9 -51.9160      10 -51.9160
      11 -51.9160      12 -51.9160      13 -51.9167      14 -51.9167      15 -51.9167
      16 -51.9168      17 -51.9113      18 -51.9112      19 -51.9126      20 -51.9098
      21 -51.9108      22 -51.9108      23 -51.9108      24 -51.9108      25 -51.9102
      26 -51.9102      27 -51.9102      28 -51.9102      29 -51.9110      30 -51.9110
      31 -51.9110      32 -51.9109

 E-fermi :   3.5091     XC(G=0):  -9.3352     alpha+bet : -9.8494

 k-point     1 :       0.0000    0.0000    0.0000
  band No.  band energies     occupation
      1     -16.0302      2.00000
      2     -15.9853      2.00000
      3     -15.9849      2.00000
      4     -15.9391      2.00000
      5     -10.7679      2.00000
      6     -10.7656      2.00000
      7     -10.7639      2.00000
      8     -10.7527      2.00000
      9     -10.7496      2.00000
     10     -10.7496      2.00000
     11     -10.7487      2.00000
     12     -10.7487      2.00000
     13     -10.7461      2.00000
     14     -10.7349      2.00000
     15     -10.7338      2.00000
     16     -10.7315      2.00000
     17      -9.7160      2.00000
     18      -9.7126      2.00000
     19      -9.7112      2.00000
     20      -9.7051      2.00000
     21      -9.7019      2.00000
     22      -9.7010      2.00000
     23      -9.7004      2.00000
     24      -9.7004      2.00000
     25      -9.6977      2.00000
     26      -9.6899      2.00000
     27      -9.6875      2.00000
     28      -9.6852      2.00000
     29      -4.5204      2.00000
     30      -4.1017      2.00000
     31      -4.1008      2.00000
     32      -3.6250      2.00000
     33      -2.8944      2.00000
     34      -2.8907      2.00000
     35      -2.8877      2.00000
     36      -2.8870      2.00000
     37      -2.8846      2.00000
     38      -2.8846      2.00000
     39      -2.8844      2.00000
     40      -2.8815      2.00000
     41      -2.8801      2.00000
     42      -2.8795      2.00000
     43      -2.8778      2.00000
     44      -2.8732      2.00000
     45       0.4756      2.00000
     46       0.4860      2.00000
     47       0.4876      2.00000
     48       0.4888      2.00000
     49       0.4907      2.00000
     50       0.4923      2.00000
     51       0.4935      2.00000
     52       0.5024      2.00000
     53       0.9961      2.00000
     54       0.9980      2.00000
     55       0.9997      2.00000
     56       1.1495      2.00000
     57       1.1529      2.00000
     58       1.1532      2.00000
     59       1.1532      2.00000
     60       1.1533      2.00000
[...]
     70       5.1777      0.00000
     71       5.1784      0.00000
     72       5.1785      0.00000
     73       5.1828      0.00000
     74       5.3995      0.00000
     75       5.4039      0.00000
     76       5.4064      0.00000
     77       6.9442      0.00000
     78       8.6502      0.00000
     79       8.6521      0.00000
     80      10.8160      0.00000
     81      10.8225      0.00000
     82      10.8343      0.00000
     83      10.8799      0.00000
     84      10.8856      0.00000

[...]

 k-point   163 :      -0.1111    0.4444    0.5000
  band No.  band energies     occupation
      1     -15.0719      2.00000
      2     -15.0714      2.00000
      3     -15.0118      2.00000
      4     -15.0115      2.00000
      5     -13.7818      2.00000
      6     -13.7813      2.00000
      7     -13.7275      2.00000
      8     -13.7271      2.00000
      9     -12.5247      2.00000
     10     -12.5242      2.00000
     11     -12.4759      2.00000
     12     -12.4755      2.00000
     13     -10.7432      2.00000
     14     -10.7426      2.00000
     15     -10.7039      2.00000
     16     -10.7034      2.00000
     17      -8.2693      2.00000
     18      -8.2681      2.00000
     19      -8.2429      2.00000
     20      -8.2415      2.00000
     21      -6.6149      2.00000
     22      -6.6132      2.00000
     23      -6.5917      2.00000
     24      -6.5903      2.00000
     25      -5.6221      2.00000
     26      -5.6203      2.00000
     27      -5.6033      2.00000
     28      -5.6018      2.00000
     29      -5.3644      2.00000
     30      -5.3640      2.00000
     31      -5.3419      2.00000
     32      -5.3416      2.00000
     33      -4.1833      2.00000
     34      -4.1820      2.00000
     35      -4.1689      2.00000
     36      -4.1674      2.00000
     37      -3.2713      2.00000
     38      -3.2704      2.00000
     39      -2.6703      2.00000
     40      -2.6700      2.00000
     41      -2.5219      2.00000
     42      -2.5202      2.00000
     43      -2.5094      2.00000
     44      -2.5080      2.00000
     45      -2.2687      2.00000
     46      -2.2680      2.00000
     47      -2.2594      2.00000
     48      -2.2589      2.00000
     49      -1.7642      2.00000
     50      -1.7633      2.00000
     51      -1.2144      2.00000
     52      -1.2141      2.00000
     53      -1.1427      2.00000
     54      -1.1415      2.00000
     55      -1.1357      2.00000
     56      -1.1343      2.00000
     57      -0.3333      2.00000
     58      -0.3325      2.00000
     59       0.1553      2.00000
     60       0.1556      2.00000
[...]
     70       7.1743      0.00000
     71       7.3719      0.00000
     72       7.3732      0.00000
     73       8.6012      0.00000
     74       8.6020      0.00000
     75       9.0126      0.00000
     76       9.0153      0.00000
     77       9.2398      0.00000
     78       9.2411      0.00000
     79      10.2606      0.00000
     80      10.2638      0.00000
     81      11.3110      0.00000
     82      11.3139      0.00000
     83      11.5882      0.00000
     84      11.5898      0.00000

 soft charge-density along one line, spin component           1
         0         1         2         3         4         5         6         7         8         9
 total charge-density along one line

------------------------ aborting loop because EDIFF is reached ----------------------------------------

         DFTD3 V3.0 Rev 1
 IVDW         = 11
 DF pbe
 parameters
 VDW_S6       =    1.0000
 VDW_S8       =    0.7220
 VDW_SR       =    1.2170
 rs18     =    1.0000
 alpha6   =   14.0000
 alpha8   =   16.0000
 k1-k3    =   16.0000    1.3333   -4.0000
 VDW_RADIUS   =   50.2022 A
 VDW_CNRADIUS =   21.1671 A
 Edisp (eV)   -2.48649

 E6    (eV) :    -1.6870
 E8    (eV) :    -0.7995
 % E8        : 32.15

  FORCE on cell =-STRESS in cart. coord.  units (eV):
  Direction    XX          YY          ZZ          XY          YZ          ZX
  Alpha Z   255.81308   255.81308   255.81308
  Ewald    1364.87880  1364.48057 -5665.06085    -1.01132     0.00004    -0.00729
  Hartree  1843.53772  1843.48968 -1662.47927    -0.13633     0.00006    -0.00167
  E(xc)    -466.86587  -466.86805  -485.20410    -0.00467     0.00000    -0.00002
  Local   -4792.89819 -4792.52488  5472.52734     0.96099     0.00003     0.00704
  n-local  -112.41776  -112.43261  -102.35539    -0.01682     0.00012    -0.00015
  augment   -12.34808   -12.34741   -11.32189     0.00156    -0.00000     0.00002
  Kinetic  1920.27616  1920.43600  2198.48931     0.25723    -0.00232     0.00502
  Fock        0.00000     0.00000     0.00000     0.00000     0.00000     0.00000
  vdW        -0.53376    -0.53333    -3.97614     0.00051     0.00000    -0.00001
  Total      -0.55791    -0.48694    -3.56791     0.05115    -0.00206     0.00294
  in kB      -2.74059    -2.39196   -17.52649     0.25127    -0.01010     0.01445

 VOLUME and BASIS-vectors are now :
  energy-cutoff  :      600.00
  volume of cell :      326.16
      direct lattice vectors                 reciprocal lattice vectors
     4.934310885 -0.000222400  0.000000000     0.202667819  0.117022500  0.000000000
    -2.467348046  4.273127376  0.000000000     0.000010548  0.234026730  0.000000000
     0.000000000  0.000000000 15.469207318     0.000000000  0.000000000  0.064644553

  length of vectors
     4.934310890  4.934310890 15.469207318     0.234026730  0.234026730  0.064644553

 FORCES acting on ions
    electron-ion (+dipol)            ewald-force                    non-local-force                 convergence-correction
   0.760E-01 0.661E-03 -.488E+00   -.701E-01 0.132E-02 0.338E+00   0.914E-04 0.114E-02 -.102E-01   -.910E-04 -.415E-04 0.148E+00
   -.198E+00 -.697E-02 -.102E+01   0.202E+00 0.985E-02 0.902E+00   -.220E-01 0.842E-03 -.814E-01   -.199E-03 -.519E-04 0.148E+00
   0.303E+00 0.289E+00 -.101E+01   -.347E+00 -.315E+00 0.898E+00   -.142E-01 0.558E-02 -.811E-01   -.184E-03 -.402E-04 0.148E+00
   0.292E+00 -.283E+00 -.102E+01   -.335E+00 0.313E+00 0.907E+00   -.152E-01 -.283E-02 -.817E-01   -.204E-03 -.460E-04 0.148E+00
   -.734E-02 0.448E-03 0.232E+00   -.266E-02 0.151E-02 -.845E-01   -.362E-02 0.115E-02 0.151E-03   0.164E-02 -.118E-04 -.148E+00
   -.737E-02 0.438E-03 0.232E+00   -.264E-02 0.151E-02 -.846E-01   -.362E-02 0.115E-02 0.144E-03   0.165E-02 -.142E-05 -.148E+00
   -.735E-02 0.458E-03 0.232E+00   -.265E-02 0.151E-02 -.846E-01   -.362E-02 0.115E-02 0.141E-03   0.164E-02 -.171E-04 -.148E+00
   -.736E-02 0.442E-03 0.232E+00   -.265E-02 0.152E-02 -.846E-01   -.362E-02 0.115E-02 0.146E-03   0.165E-02 -.119E-04 -.148E+00
   -.985E-02 0.480E-02 -.678E-01   0.123E-01 -.621E-02 -.845E-01   0.172E-02 -.101E-02 -.297E-03   0.150E-03 -.720E-04 0.152E+00
   0.961E-02 0.662E-02 -.619E-01   -.715E-02 -.808E-02 -.906E-01   0.172E-02 -.994E-03 -.109E-03   0.119E-03 -.649E-04 0.152E+00
   -.169E-02 -.111E-01 -.649E-01   0.419E-02 0.968E-02 -.876E-01   0.171E-02 -.100E-02 -.203E-03   0.128E-03 -.414E-04 0.152E+00
   0.123E-02 0.100E-03 -.773E-01   0.117E-02 -.154E-02 -.753E-01   0.174E-02 -.100E-02 0.936E-04   0.140E-03 -.595E-04 0.152E+00
   0.977E-02 -.640E-02 0.243E+00   -.728E-02 0.511E-02 -.908E-01   0.176E-02 -.990E-03 -.841E-04   0.202E-03 -.123E-03 -.152E+00
   -.995E-02 -.452E-02 0.237E+00   0.124E-01 0.318E-02 -.844E-01   0.176E-02 -.969E-03 -.265E-03   0.240E-03 -.132E-03 -.152E+00
   -.172E-02 0.116E-01 0.240E+00   0.424E-02 -.129E-01 -.876E-01   0.174E-02 -.984E-03 -.174E-03   0.230E-03 -.149E-03 -.152E+00
   0.130E-02 0.227E-03 0.228E+00   0.113E-02 -.154E-02 -.752E-01   0.179E-02 -.982E-03 0.127E-03   0.213E-03 -.128E-03 -.152E+00
   -.670E+00 0.199E-02 0.198E+01   0.768E+00 -.451E-02 -.217E+01   0.824E-01 -.126E-02 0.182E+00   0.152E-03 0.401E-04 0.148E+00
   0.168E+00 -.342E-03 -.551E+00   -.189E+00 -.151E-02 0.386E+00   -.168E-01 -.120E-02 0.248E-01   0.142E-03 0.465E-04 0.148E+00
   0.139E-01 -.892E-01 -.551E+00   -.139E-01 0.997E-01 0.386E+00   -.727E-02 0.436E-02 0.249E-01   0.139E-03 0.475E-04 0.148E+00
   0.141E-01 0.883E-01 -.551E+00   -.139E-01 -.103E+00 0.386E+00   -.735E-02 -.655E-02 0.247E-01   0.150E-03 0.448E-04 0.148E+00
   0.711E-02 -.318E-03 0.232E+00   0.268E-02 -.152E-02 -.847E-01   0.357E-02 -.112E-02 0.276E-04   -.160E-02 -.125E-04 -.148E+00
   0.716E-02 -.311E-03 0.232E+00   0.263E-02 -.152E-02 -.845E-01   0.357E-02 -.112E-02 0.538E-04   -.160E-02 -.208E-04 -.148E+00
   0.713E-02 -.332E-03 0.232E+00   0.266E-02 -.151E-02 -.845E-01   0.357E-02 -.112E-02 0.546E-04   -.159E-02 -.109E-04 -.148E+00
   0.714E-02 -.306E-03 0.232E+00   0.266E-02 -.153E-02 -.845E-01   0.357E-02 -.111E-02 0.535E-04   -.161E-02 -.134E-04 -.148E+00
   0.102E-01 -.673E-02 -.619E-01   -.124E-01 0.809E-02 -.906E-01   -.177E-02 0.100E-02 0.813E-04   -.139E-03 0.677E-04 0.152E+00
   -.958E-02 -.493E-02 -.679E-01   0.701E-02 0.621E-02 -.845E-01   -.164E-02 0.105E-02 -.830E-04   -.112E-03 0.673E-04 0.152E+00
   -.126E-02 0.113E-01 -.649E-01   -.109E-02 -.968E-02 -.876E-01   -.175E-02 0.914E-03 0.572E-06   -.125E-03 0.412E-04 0.152E+00
   0.163E-02 -.128E-03 -.771E-01   -.411E-02 0.155E-02 -.753E-01   -.166E-02 0.990E-03 -.465E-04   -.126E-03 0.564E-04 0.152E+00
   -.950E-02 0.448E-02 0.237E+00   0.713E-02 -.318E-02 -.844E-01   -.162E-02 0.881E-03 -.461E-04   -.242E-03 0.152E-03 -.152E+00
   0.105E-01 0.634E-02 0.243E+00   -.126E-01 -.511E-02 -.908E-01   -.175E-02 0.927E-03 0.136E-03   -.280E-03 0.153E-03 -.152E+00
   -.111E-02 -.119E-01 0.240E+00   -.104E-02 0.129E-01 -.876E-01   -.173E-02 0.102E-02 0.464E-04   -.260E-03 0.174E-03 -.152E+00
   0.187E-02 -.363E-03 0.228E+00   -.415E-02 0.154E-02 -.752E-01   -.164E-02 0.944E-03 0.143E-05   -.261E-03 0.152E-03 -.152E+00
   0.928E-04 0.695E-06 -.351E-02   -.400E-13 0.511E-13 -.426E-13   -.192E-04 0.170E-05 0.231E-02   -.364E-04 -.587E-05 0.992E-03

 POSITION                                       TOTAL-FORCE (eV/Angst)
      2.46715     -0.00011      1.93365         0.005925      0.003079     -0.012071
      4.93431     -0.00022      1.93365        -0.018116      0.003678     -0.049048
      1.23348      2.13645      1.93365        -0.058253     -0.020073     -0.049383
      3.70064      2.13634      1.93365        -0.058264      0.026280     -0.048675
      2.46715     -0.00011      9.66825        -0.011985      0.003097      0.000243
      4.93431     -0.00022      9.66825        -0.011986      0.003096      0.000241
      1.23348      2.13645      9.66825        -0.011986      0.003097      0.000238
      3.70064      2.13634      9.66825        -0.011987      0.003097      0.000244
     -1.23367      2.13656      5.80095         0.004326     -0.002496     -0.000336
      1.23348      2.13645      5.80095         0.004296     -0.002526     -0.000355
     -2.46735      4.27313      5.80095         0.004336     -0.002487     -0.000345
     -0.00019      4.27302      5.80095         0.004278     -0.002503     -0.000157
     -1.23367      2.13656     13.53556         0.004445     -0.002394     -0.000064
      1.23348      2.13645     13.53556         0.004475     -0.002433     -0.000040
     -2.46735      4.27313     13.53556         0.004493     -0.002439     -0.000052
     -0.00019      4.27302     13.53556         0.004429     -0.002422      0.000139
     -0.00323      1.42441      1.92412         0.181110     -0.003740      0.136336
      2.46696      1.42430      1.93365        -0.038657     -0.002997      0.007560
     -1.23387      3.56098      1.93365        -0.007212      0.015177      0.007495
      1.23329      3.56086      1.93365        -0.007115     -0.021191      0.007642
     -0.00019      1.42441      9.66825         0.011761     -0.002963      0.000112
      2.46696      1.42430      9.66825         0.011761     -0.002963      0.000135
     -1.23387      3.56098      9.66825         0.011761     -0.002963      0.000134
      1.23329      3.56086      9.66825         0.011761     -0.002963      0.000135
      1.23367      0.71204      5.80095        -0.004176      0.002436     -0.000175
      3.70083      0.71193      5.80095        -0.004309      0.002412     -0.000206
     -0.00000      2.84860      5.80095        -0.004221      0.002538     -0.000189
      2.46715      2.84849      5.80095        -0.004271      0.002463     -0.000139
      1.23367      0.71204     13.53556        -0.004222      0.002327      0.000107
      3.70083      0.71193     13.53556        -0.004087      0.002302      0.000156
     -0.00000      2.84860     13.53556        -0.004134      0.002199      0.000132
      2.46715      2.84849     13.53556        -0.004178      0.002277      0.000183
    total drift:                                0.000037     -0.000003     -0.000210

  FREE ENERGIE OF THE ION-ELECTRON SYSTEM (eV)
  free  energy   TOTEN  =      -297.59124820 eV

  energy  without entropy=     -297.59124820  energy(sigma->0) =     -297.59124820

 BZINTS: Fermi energy:  3.509123;128.000000 electrons
         Band energy:-718.527339;  BLOECHL correction: -0.000001