 vasp.5.3.5 31Mar14 (build Nov 02 2014 15:17:37) complex

 executed on        ion-Intel-MKL date 2016.10.19  03:51:39

 INCAR:
 POTCAR:   PAW_PBE C 08Apr2002
 POTCAR:   PAW_PBE C 08Apr2002
   VRHFIN =C: s2p2

   TITEL  = PAW_PBE C 08Apr2002
   POMASS =   12.011; ZVAL   =    4.000    mass and valenz
   ENMAX  =  400.000; ENMIN  =  300.000 eV
   QCUT   =   -5.516; QGAM   =   11.032    optimization parameters

   Description
     l     E      TYP  RCUT    TYP  RCUT
     0   .000     23  1.200
     0   .000     23  1.200
     1   .000     23  1.500
     1  2.500     23  1.500
     2   .000      7  1.500

 PAW_PBE C 08Apr2002                    :

 POSCAR: C
  positions in direct lattice
 exchange correlation table for  LEXCH =        8
   RHO(1)=    0.500       N(1)  =     2000
   RHO(2)=  100.500       N(2)  =     4000

 ion  position               nearest neighbor table
   1  0.500  0.000  0.042-  12 1.42  10 1.42  11 1.42
   2  1.000  0.000  0.041-   9 1.42  12 1.42  11 1.42
   3  0.500  0.500  0.041-  12 1.42   9 1.42  10 1.42
   4  1.000  0.500  0.041-  11 1.42  10 1.42   9 1.42
   5  0.500  0.000  0.541-  14 1.42  15 1.42  16 1.42
   6  1.000  0.000  0.541-  13 1.42  16 1.42  15 1.42
   7  0.500  0.500  0.541-  16 1.42  13 1.42  14 1.42
   8  1.000  0.500  0.541-  15 1.42  14 1.42  13 1.42
   9  0.166  0.334  0.041-   2 1.42   3 1.42   4 1.42
  10  0.666  0.334  0.041-   4 1.42   1 1.42   3 1.42
  11  0.166  0.834  0.041-   4 1.42   2 1.42   1 1.42
  12  0.666  0.834  0.041-   1 1.42   3 1.42   2 1.42
  13  0.166  0.334  0.541-   6 1.42   7 1.42   8 1.42
  14  0.666  0.334  0.541-   5 1.42   8 1.42   7 1.42
  15  0.166  0.834  0.541-   8 1.42   5 1.42   6 1.42
  16  0.666  0.834  0.541-   7 1.42   6 1.42   5 1.42

  LATTYP: Found a base centered orthorhombic cell.
 ALAT       =     4.9295499439
 B/A-ratio  =     1.7336082085
 C/A-ratio  =     8.1143310150

  Lattice vectors:

 A1 = (   4.9328746796,   0.0000000000,   0.0000000000)
 A2 = (  -2.4697609550,   4.2700741714,   0.0000000000)
 A3 = (   0.0000000000,   0.0000000000,  40.0000000000)

Analysis of symmetry for initial positions (statically):
 Subroutine PRICEL returns:
 Original cell was already a primitive cell.

 Routine SETGRP: Setting up the symmetry group for a
 base centered orthorhombic supercell.

 Subroutine GETGRP returns: Found  1 space group operations
 (whereof  1 operations were pure point group operations)
 out of a pool of  8 trial point group operations.

The static configuration has the point symmetry C_1 .

Analysis of symmetry for dynamics (positions and initial velocities):
 Subroutine PRICEL returns:
 Original cell was already a primitive cell.

 Routine SETGRP: Setting up the symmetry group for a
 base centered orthorhombic supercell.

 Subroutine GETGRP returns: Found  1 space group operations
 (whereof  1 operations were pure point group operations)
 out of a pool of  8 trial point group operations.

The dynamic configuration has the point symmetry C_1 .

 KPOINTS: B4C B11C-CBC

Automatic generation of k-mesh.
Space group operators:
 irot       det(A)        alpha          n_x          n_y          n_z        tau_x        tau_y        tau_z
    1     1.000000     0.000000     1.000000     0.000000     0.000000     0.000000     0.000000     0.000000

 Subroutine IBZKPT returns following result:

 Found     76 irreducible k-points:

 Following reciprocal coordinates:
            Coordinates               Weight
  0.000000  0.000000  0.000000      1.000000
  0.166667  0.000000  0.000000      2.000000
  0.333333  0.000000  0.000000      2.000000
  0.500000  0.000000  0.000000      1.000000
  0.000000  0.166667  0.000000      2.000000
  0.166667  0.166667  0.000000      2.000000
  0.333333  0.166667  0.000000      2.000000
  0.500000  0.166667  0.000000      2.000000
 -0.333333  0.166667  0.000000      2.000000
 -0.166667  0.166667  0.000000      2.000000
  0.000000  0.333333  0.000000      2.000000
  0.166667  0.333333  0.000000      2.000000
  0.333333  0.333333  0.000000      2.000000
  0.500000  0.333333  0.000000      2.000000
 -0.333333  0.333333  0.000000      2.000000
 -0.166667  0.333333  0.000000      2.000000
  0.000000  0.500000  0.000000      1.000000
  0.166667  0.500000  0.000000      2.000000
  0.333333  0.500000  0.000000      2.000000
  0.500000  0.500000  0.000000      1.000000
  0.000000  0.000000  0.250000      2.000000
  0.166667  0.000000  0.250000      2.000000
  0.333333  0.000000  0.250000      2.000000
  0.500000  0.000000  0.250000      2.000000
 -0.333333 -0.000000  0.250000      2.000000
 -0.166667 -0.000000  0.250000      2.000000
  0.000000  0.166667  0.250000      2.000000
  0.166667  0.166667  0.250000      2.000000
  0.333333  0.166667  0.250000      2.000000
  0.500000  0.166667  0.250000      2.000000
 -0.333333  0.166667  0.250000      2.000000
 -0.166667  0.166667  0.250000      2.000000
  0.000000  0.333333  0.250000      2.000000
  0.166667  0.333333  0.250000      2.000000
  0.333333  0.333333  0.250000      2.000000
  0.500000  0.333333  0.250000      2.000000
 -0.333333  0.333333  0.250000      2.000000
 -0.166667  0.333333  0.250000      2.000000
  0.000000  0.500000  0.250000      2.000000
  0.166667  0.500000  0.250000      2.000000
  0.333333  0.500000  0.250000      2.000000
  0.500000  0.500000  0.250000      2.000000
 -0.333333  0.500000  0.250000      2.000000
 -0.166667  0.500000  0.250000      2.000000
  0.000000 -0.333333  0.250000      2.000000
  0.166667 -0.333333  0.250000      2.000000
  0.333333 -0.333333  0.250000      2.000000
  0.500000 -0.333333  0.250000      2.000000
 -0.333333 -0.333333  0.250000      2.000000
 -0.166667 -0.333333  0.250000      2.000000
  0.000000 -0.166667  0.250000      2.000000
  0.166667 -0.166667  0.250000      2.000000
  0.333333 -0.166667  0.250000      2.000000
  0.500000 -0.166667  0.250000      2.000000
 -0.333333 -0.166667  0.250000      2.000000
 -0.166667 -0.166667  0.250000      2.000000
  0.000000  0.000000  0.500000      1.000000
  0.166667  0.000000  0.500000      2.000000
  0.333333  0.000000  0.500000      2.000000
  0.500000  0.000000  0.500000      1.000000
  0.000000  0.166667  0.500000      2.000000
  0.166667  0.166667  0.500000      2.000000
  0.333333  0.166667  0.500000      2.000000
  0.500000  0.166667  0.500000      2.000000
 -0.333333  0.166667  0.500000      2.000000
 -0.166667  0.166667  0.500000      2.000000
  0.000000  0.333333  0.500000      2.000000
  0.166667  0.333333  0.500000      2.000000
  0.333333  0.333333  0.500000      2.000000
  0.500000  0.333333  0.500000      2.000000
 -0.333333  0.333333  0.500000      2.000000
 -0.166667  0.333333  0.500000      2.000000
  0.000000  0.500000  0.500000      1.000000
  0.166667  0.500000  0.500000      2.000000
  0.333333  0.500000  0.500000      2.000000
  0.500000  0.500000  0.500000      1.000000

 Following cartesian coordinates:
            Coordinates               Weight
  0.000000  0.000000  0.000000      1.000000
  0.033787  0.019542  0.000000      2.000000
  0.067574  0.039084  0.000000      2.000000
  0.101361  0.058626  0.000000      1.000000
  0.000000  0.039031  0.000000      2.000000
  0.033787  0.058573  0.000000      2.000000
  0.067574  0.078115  0.000000      2.000000
  0.101361  0.097657  0.000000      2.000000
 -0.067574 -0.000053  0.000000      2.000000
 -0.033787  0.019489  0.000000      2.000000
  0.000000  0.078063  0.000000      2.000000
  0.033787  0.097605  0.000000      2.000000
  0.067574  0.117147  0.000000      2.000000
  0.101361  0.136689  0.000000      2.000000
 -0.067574  0.038979  0.000000      2.000000
 -0.033787  0.058521  0.000000      2.000000
  0.000000  0.117094  0.000000      1.000000
  0.033787  0.136636  0.000000      2.000000
  0.067574  0.156178  0.000000      2.000000
  0.101361  0.175720  0.000000      1.000000
  0.000000  0.000000  0.006250      2.000000
  0.033787  0.019542  0.006250      2.000000
  0.067574  0.039084  0.006250      2.000000
  0.101361  0.058626  0.006250      2.000000
 -0.067574 -0.039084  0.006250      2.000000
 -0.033787 -0.019542  0.006250      2.000000
  0.000000  0.039031  0.006250      2.000000
  0.033787  0.058573  0.006250      2.000000
  0.067574  0.078115  0.006250      2.000000
  0.101361  0.097657  0.006250      2.000000
 -0.067574 -0.000053  0.006250      2.000000
 -0.033787  0.019489  0.006250      2.000000
  0.000000  0.078063  0.006250      2.000000
  0.033787  0.097605  0.006250      2.000000
  0.067574  0.117147  0.006250      2.000000
  0.101361  0.136689  0.006250      2.000000
 -0.067574  0.038979  0.006250      2.000000
 -0.033787  0.058521  0.006250      2.000000
  0.000000  0.117094  0.006250      2.000000
  0.033787  0.136636  0.006250      2.000000
  0.067574  0.156178  0.006250      2.000000
  0.101361  0.175720  0.006250      2.000000
 -0.067574  0.078010  0.006250      2.000000
 -0.033787  0.097552  0.006250      2.000000
  0.000000 -0.078063  0.006250      2.000000
  0.033787 -0.058521  0.006250      2.000000
  0.067574 -0.038979  0.006250      2.000000
  0.101361 -0.019437  0.006250      2.000000
 -0.067574 -0.117147  0.006250      2.000000
 -0.033787 -0.097605  0.006250      2.000000
  0.000000 -0.039031  0.006250      2.000000
  0.033787 -0.019489  0.006250      2.000000
  0.067574  0.000053  0.006250      2.000000
  0.101361  0.019595  0.006250      2.000000
 -0.067574 -0.078115  0.006250      2.000000
 -0.033787 -0.058573  0.006250      2.000000
  0.000000  0.000000  0.012500      1.000000
  0.033787  0.019542  0.012500      2.000000
  0.067574  0.039084  0.012500      2.000000
  0.101361  0.058626  0.012500      1.000000
  0.000000  0.039031  0.012500      2.000000
  0.033787  0.058573  0.012500      2.000000
  0.067574  0.078115  0.012500      2.000000
  0.101361  0.097657  0.012500      2.000000
 -0.067574 -0.000053  0.012500      2.000000
 -0.033787  0.019489  0.012500      2.000000
  0.000000  0.078063  0.012500      2.000000
  0.033787  0.097605  0.012500      2.000000
  0.067574  0.117147  0.012500      2.000000
  0.101361  0.136689  0.012500      2.000000
 -0.067574  0.038979  0.012500      2.000000
 -0.033787  0.058521  0.012500      2.000000
  0.000000  0.117094  0.012500      1.000000
  0.033787  0.136636  0.012500      2.000000
  0.067574  0.156178  0.012500      2.000000
  0.101361  0.175720  0.012500      1.000000

 TETIRR: Found    432 inequivalent tetrahedra from      864

 I would recommend the setting:
   dimension x,y,z NGX =    46 NGY =   46 NGZ =  369
 SYSTEM =  graphite
 POSCAR =  C

 Startparameter for this run:
   NWRITE =      2    write-flag & timer
   PREC   = accura    normal or accurate (medium, high low for compatibility)
   ISTART =      0    job   : 0-new  1-cont  2-samecut
   ICHARG =      2    charge: 1-file 2-atom 10-const
   ISPIN  =      1    spin polarized calculation?
   LNONCOLLINEAR =      F non collinear calculations
   LSORBIT =      F    spin-orbit coupling
   INIWAV =      1    electr: 0-lowe 1-rand  2-diag
   LASPH  =      F    aspherical Exc in radial PAW
   METAGGA=      F    non-selfconsistent MetaGGA calc.

 Electronic Relaxation 1
[...]
 k-point 44 :  -0.1667 0.5000 0.2500  plane waves:   43233
 k-point 45 :   0.0000-0.3333 0.2500  plane waves:   43286
 k-point 46 :   0.1667-0.3333 0.2500  plane waves:   43337
 k-point 47 :   0.3333-0.3333 0.2500  plane waves:   43288
 k-point 48 :   0.5000-0.3333 0.2500  plane waves:   43231
 k-point 49 :  -0.3333-0.3333 0.2500  plane waves:   43214
 k-point 50 :  -0.1667-0.3333 0.2500  plane waves:   43233
 k-point 51 :   0.0000-0.1667 0.2500  plane waves:   43387
 k-point 52 :   0.1667-0.1667 0.2500  plane waves:   43387
 k-point 53 :   0.3333-0.1667 0.2500  plane waves:   43337
 k-point 54 :   0.5000-0.1667 0.2500  plane waves:   43233
 k-point 55 :  -0.3333-0.1667 0.2500  plane waves:   43233
 k-point 56 :  -0.1667-0.1667 0.2500  plane waves:   43332
 k-point 57 :   0.0000 0.0000 0.5000  plane waves:   43360
 k-point 58 :   0.1667 0.0000 0.5000  plane waves:   43380
 k-point 59 :   0.3333 0.0000 0.5000  plane waves:   43274
 k-point 60 :   0.5000 0.0000 0.5000  plane waves:   43268
 k-point 61 :   0.0000 0.1667 0.5000  plane waves:   43380
 k-point 62 :   0.1667 0.1667 0.5000  plane waves:   43320
 k-point 63 :   0.3333 0.1667 0.5000  plane waves:   43256
 k-point 64 :   0.5000 0.1667 0.5000  plane waves:   43254
 k-point 65 :  -0.3333 0.1667 0.5000  plane waves:   43332
 k-point 66 :  -0.1667 0.1667 0.5000  plane waves:   43388
 k-point 67 :   0.0000 0.3333 0.5000  plane waves:   43274
 k-point 68 :   0.1667 0.3333 0.5000  plane waves:   43256
 k-point 69 :   0.3333 0.3333 0.5000  plane waves:   43256
 k-point 70 :   0.5000 0.3333 0.5000  plane waves:   43248
 k-point 71 :  -0.3333 0.3333 0.5000  plane waves:   43270
 k-point 72 :  -0.1667 0.3333 0.5000  plane waves:   43332
 k-point 73 :   0.0000 0.5000 0.5000  plane waves:   43268
 k-point 74 :   0.1667 0.5000 0.5000  plane waves:   43254
 k-point 75 :   0.3333 0.5000 0.5000  plane waves:   43248
 k-point 76 :   0.5000 0.5000 0.5000  plane waves:   43256

 maximum and minimum number of plane-waves per node :     43396    43214

 maximum number of plane-waves:     43396
 maximum index in each direction:
   IXMAX=   11   IYMAX=   11   IZMAX=   92
   IXMIN=  -11   IYMIN=  -11   IZMIN=  -92

 NGX is ok and might be reduce to  46
 NGY is ok and might be reduce to  46
 NGZ is ok and might be reduce to 370

 serial   3D FFT for wavefunctions
 parallel 3D FFT for charge:
    minimum data exchange during FFTs selected (reduces bandwidth)

 Broyden mixing: mesh for mixing (old mesh)
   NGX = 23   NGY = 23   NGZ =185
  (NGX  = 96   NGY  = 96   NGZ  =756)
  gives a total of  97865 points

 initial charge density was supplied:
 charge density of overlapping atoms calculated
 number of electron      64.0000000 magnetization
 keeping initial charge density in first step

 Maximum index for augmentation-charges         3961 (set IRDMAX)

 First call to EWALD:  gamma=   0.188
 Maximum number of real-space cells 5x 5x 1
 Maximum number of reciprocal cells 2x 2x10

 FEWALD executed in parallel

----------------------------------------- Iteration    1(   1)  ---------------------------------------

 BZINTS: Fermi energy:  7.986787; 64.000000 electrons
         Band energy:-158.330412;  BLOECHL correction: -0.219090

 eigenvalue-minimisations  :  6465
 total energy-change (2. order) : 0.7220351E+03  (-0.2737494E+04)
 number of electron      64.0000000 magnetization
 augmentation part       64.0000000 magnetization

 Free energy of the ion-electron system (eV)
  alpha Z        PSCENC =        24.75690598
  Ewald energy   TEWEN  =     10359.33382077
  -Hartree energ DENC   =    -12060.23053924
  -exchange      EXHF   =         0.00000000
  -V(xc)+E(xc)   XCENC  =       220.44224133
  PAW double counting   =       605.30308954     -623.71076428
  entropy T*S    EENTRO =         0.00000000
  eigenvalues    EBANDS =      -158.33041229
  atomic energy  EATOM  =      2354.47077523
  free energy    TOTEN  =       722.03511704 eV

  energy without entropy =      722.03511704  energy(sigma->0) =      722.03511704

[...]

 eigenvalue-minimisations  :  9987
 total energy-change (2. order) :-0.7348902E+03  (-0.7032758E+03)
 number of electron      64.0000000 magnetization
 augmentation part       64.0000000 magnetization

[...]

 Broyden mixing:
  rms(total) = 0.15628E+01    rms(broyden)= 0.15628E+01
  rms(prec ) = 0.15991E+01
  weight for this iteration     100.00

[...]

 eigenvalues of (default mixing * dielectric matrix)
  average eigenvalue GAMMA=   2.0494
  2.0494

[...]

 eigenvalue-minimisations  :  4188
 total energy-change (2. order) : 0.6143091E-07  ( 0.4233201E-09)
 number of electron      63.9999995 magnetization
 augmentation part        1.5303199 magnetization

[...]

 eigenvalue-minimisations  :  4404
 total energy-change (2. order) : 0.9014548E-07  (-0.1407214E-06)
 number of electron      63.9999995 magnetization
 augmentation part        1.5303199 magnetization

[...]

 eigenvalue-minimisations  :  4119
 total energy-change (2. order) :-0.6456730E-07  (-0.9060957E-08)
 number of electron      63.9999995 magnetization
 augmentation part        1.5303199 magnetization

[...]

 eigenvalue-minimisations  :  4509
 total energy-change (2. order) :-0.2677552E-07  ( 0.6008850E-09)
 number of electron      63.9999995 magnetization
 augmentation part        1.5303199 magnetization

 Broyden mixing:
  rms(total) = 0.93988E-04    rms(broyden)= 0.93988E-04
  rms(prec ) = 0.95794E-04
  weight for this iteration     100.00

 eigenvalues of (default mixing * dielectric matrix)
  average eigenvalue GAMMA=   1.9052
  8.3958  9.8063  7.5140  5.1698  3.7331  3.7331  3.3118  2.6431  2.6431  1.8682
  1.8682  2.1563  2.1563  2.1967  1.7381  1.3516  1.3516  1.3850  1.3850  1.2802
  1.0647  1.0647  0.8350  0.8350  0.0406  0.0339  0.9290  0.8218  0.8218  0.1415
  0.5541  0.5541  0.2587  0.5268  0.5268  0.3523  0.7232  0.6228  0.6228  0.4881
  0.6088

[...]

----------------------------------------- Iteration    1(  57)  ---------------------------------------

[...]

 eigenvalue-minimisations  :  4284
 total energy-change (2. order) : 0.3069090E-08  ( 0.4847413E-09)
 number of electron      63.9999995 magnetization
 augmentation part        1.5303199 magnetization

 Free energy of the ion-electron system (eV)
  alpha Z        PSCENC =        24.75690598
  Ewald energy   TEWEN  =     10359.33382077
  -Hartree energ DENC   =    -12335.14643697
  -exchange      EXHF   =         0.00000000
  -V(xc)+E(xc)   XCENC  =       230.15937388
  PAW double counting   =      1110.86012014    -1131.46589832
  entropy T*S    EENTRO =         0.00000000
  eigenvalues    EBANDS =      -760.59183089
  atomic energy  EATOM  =      2354.47077523
  free energy    TOTEN  =      -147.62317019 eV

  energy without entropy =     -147.62317019  energy(sigma->0) =     -147.62317019

 average (electrostatic) potential at core
  the test charge radii are     0.6991
  (the norm of the test charge is              1.0000)
       1 -58.1817       2 -58.1817       3 -58.1822       4 -58.1811       5 -58.1818
       6 -58.1818       7 -58.1818       8 -58.1818       9 -58.1820      10 -58.1820
      11 -58.1819      12 -58.1821      13 -58.1818      14 -58.1818      15 -58.1818
      16 -58.1818

 E-fermi :  -2.7483     XC(G=0):  -2.1465     alpha+bet : -1.9064

 k-point     1 :       0.0000    0.0000    0.0000
  band No.  band energies     occupation
      1     -22.2609      2.00000
      2     -22.2609      2.00000
      3     -17.0243      2.00000
      4     -17.0228      2.00000
      5     -17.0205      2.00000
      6     -17.0190      2.00000
      7     -17.0190      2.00000
      8     -17.0159      2.00000
      9     -15.9874      2.00000
     10     -15.9867      2.00000
     11     -15.9755      2.00000
     12     -15.9728      2.00000
     13     -15.9728      2.00000
     14     -15.9692      2.00000
     15     -10.3640      2.00000
     16     -10.3639      2.00000
     17      -9.1665      2.00000
     18      -9.1644      2.00000
     19      -9.1644      2.00000
     20      -9.1635      2.00000
     21      -9.1423      2.00000
     22      -9.1408      2.00000
     23      -5.7949      2.00000
     24      -5.7915      2.00000
     25      -5.7672      2.00000
     26      -5.7643      2.00000
     27      -5.1115      2.00000
     28      -5.1101      2.00000
     29      -5.1078      2.00000
     30      -5.1060      2.00000
     31      -5.1060      2.00000
     32      -5.1048      2.00000
     33      -1.0776      0.00000
     34      -1.0746      0.00000
     35      -1.0657      0.00000
     36      -1.0657      0.00000
     37      -1.0657      0.00000
     38      -1.0633      0.00000
     39       0.5237      0.00000
     40       0.5259      0.00000
     41       1.2725      0.00000
     42       1.3228      0.00000

[...]

 k-point    76 :       0.5000    0.5000    0.5000
  band No.  band energies     occupation
      1     -20.7993      2.00000
      2     -20.7973      2.00000
      3     -20.7973      2.00000
      4     -20.7952      2.00000
      5     -17.9751      2.00000
      6     -17.9741      2.00000
      7     -17.9741      2.00000
      8     -17.9726      2.00000
      9     -13.2711      2.00000
     10     -13.2705      2.00000
     11     -13.2705      2.00000
     12     -13.2682      2.00000
     13     -11.7024      2.00000
     14     -11.7006      2.00000
     15     -11.7006      2.00000
     16     -11.7006      2.00000
     17     -10.1844      2.00000
     18     -10.1810      2.00000
     19     -10.1810      2.00000
     20     -10.1802      2.00000
     21      -8.6395      2.00000
     22      -8.6381      2.00000
     23      -8.6381      2.00000
     24      -8.6361      2.00000
     25      -7.7775      2.00000
     26      -7.7758      2.00000
     27      -7.7758      2.00000
     28      -7.7705      2.00000
     29      -5.4844      2.00000
     30      -5.4822      2.00000
     31      -5.4822      2.00000
     32      -5.4811      2.00000
     33       0.0661      0.00000
     34       0.0667      0.00000
     35       0.0667      0.00000
     36       0.0695      0.00000
     37       2.5244      0.00000
     38       2.5247      0.00000
     39       2.5247      0.00000
     40       2.5248      0.00000
     41       3.3091      0.00000
     42       3.3092      0.00000

 soft charge-density along one line, spin component           1
         0         1         2         3         4         5         6         7         8         9
 total charge-density along one line

------------------------ aborting loop because EDIFF is reached ----------------------------------------

         DFTD3 V3.0 Rev 1
 IVDW         = 12
 DF pbe
 parameters
 VDW_S6       =    1.0000
 VDW_S8       =    0.7875
 VDW_A1       =    0.4289
 VDW_A2       =    4.4407
 k1-k3        =   16.0000    1.3333   -4.0000
 VDW_RADIUS   =   50.2022 A
 VDW_CNRADIUS =   21.1671 A
 Edisp (eV)   -1.41780

 E6    (eV) :    -0.9742
 E8    (eV) :    -0.4436
 % E8        : 31.29

  FORCE on cell =-STRESS in cart. coord.  units (eV):
  Direction    XX          YY          ZZ          XY          YZ          ZX
  Alpha Z    24.75691    24.75691    24.75691
  Ewald   12510.51992 12510.28965-14661.48031    -0.46728    -0.00061    -0.00199
  Hartree 12244.43190 12244.75307-12154.03888     0.10795    -0.00002    -0.00051
  E(xc)    -233.43522  -233.42554  -242.79054     0.00182     0.00001    -0.00000
  Local  -25444.25686-25444.94337 25990.57650     0.02649    -0.00095     0.00263
  n-local   -55.91599   -56.05651   -51.12912    -0.08730    -0.00006     0.00007
  augment    -6.18330    -6.17999    -5.66684     0.00206    -0.00002     0.00005
  Kinetic   961.50381   960.49601  1099.58807    -0.21721     0.00339    -0.00177
  Fock        0.00000     0.00000     0.00000     0.00000     0.00000     0.00000
  vdW        -0.34516    -0.34258    -0.00360     0.00231     0.00000    -0.00000
  Total       1.07600    -0.65235    -0.18782    -0.63116     0.00173    -0.00152
  in kB       2.04610    -1.24050    -0.35715    -1.20021     0.00330    -0.00290

 VOLUME and BASIS-vectors are now :
  energy-cutoff  :      800.00
  volume of cell :      842.55
      direct lattice vectors                 reciprocal lattice vectors
     4.932874680  0.000000000  0.000000000     0.202721550  0.117251773  0.000000000
    -2.469760955  4.270074171  0.000000000     0.000000000  0.234187970  0.000000000
     0.000000000  0.000000000 40.000000000     0.000000000  0.000000000  0.025000000

  length of vectors
     4.932874680  4.932874680 40.000000000     0.234187970  0.234187970  0.025000000

 FORCES acting on ions
    electron-ion (+dipol)            ewald-force                    non-local-force                 convergence-correction
   0.974E-01 0.196E+00 -.445E+01   -.200E+00 -.619E-01 0.449E+01   -.556E-01 0.440E-01 -.187E+00   0.171E-04 -.387E-04 0.103E-04
   -.240E+00 0.196E+00 0.473E+00   0.186E+00 -.625E-01 -.457E+00   -.153E-01 0.440E-01 -.250E-01   0.161E-04 -.386E-04 0.404E-05
   -.178E+00 0.232E+00 0.475E+00   0.115E+00 -.103E+00 -.457E+00   -.190E-01 0.417E-01 -.263E-01   0.166E-04 -.383E-04 0.347E-05
   -.178E+00 0.160E+00 0.476E+00   0.115E+00 -.216E-01 -.457E+00   -.189E-01 0.461E-01 -.271E-01   0.166E-04 -.391E-04 0.311E-05
   -.236E+00 0.136E+00 -.341E-01   0.108E+00 -.624E-01 0.341E-01   -.430E-01 0.248E-01 -.272E-04   0.147E-05 -.859E-06 -.272E-06
   -.236E+00 0.136E+00 -.341E-01   0.108E+00 -.624E-01 0.341E-01   -.430E-01 0.248E-01 -.273E-04   0.151E-05 -.849E-06 -.302E-06
   -.236E+00 0.136E+00 -.341E-01   0.108E+00 -.624E-01 0.341E-01   -.430E-01 0.248E-01 -.273E-04   0.149E-05 -.872E-06 -.320E-06
   -.236E+00 0.136E+00 -.341E-01   0.108E+00 -.624E-01 0.341E-01   -.430E-01 0.248E-01 -.273E-04   0.150E-05 -.841E-06 -.284E-06
   0.142E+00 -.196E+00 0.409E+00   -.810E-01 0.625E-01 -.407E+00   0.219E-01 -.439E-01 0.106E-01   -.160E-04 0.386E-04 0.381E-05
   0.252E+00 -.189E+00 0.961E+00   -.191E+00 0.540E-01 -.996E+00   0.307E-01 -.436E-01 0.866E-01   -.162E-04 0.387E-04 0.557E-05
   0.464E-01 -.315E+00 0.961E+00   0.353E-01 0.193E+00 -.994E+00   0.277E-01 -.457E-01 0.847E-01   -.164E-04 0.388E-04 0.567E-05
   0.586E-01 -.839E-01 0.964E+00   0.214E-01 -.601E-01 -.997E+00   0.284E-01 -.426E-01 0.838E-01   -.164E-04 0.387E-04 0.577E-05
   0.236E+00 -.136E+00 -.341E-01   -.108E+00 0.624E-01 0.341E-01   0.430E-01 -.248E-01 -.270E-04   -.150E-05 0.880E-06 -.285E-06
   0.236E+00 -.136E+00 -.341E-01   -.108E+00 0.624E-01 0.341E-01   0.430E-01 -.248E-01 -.271E-04   -.154E-05 0.872E-06 -.302E-06
   0.236E+00 -.136E+00 -.341E-01   -.108E+00 0.624E-01 0.341E-01   0.430E-01 -.248E-01 -.271E-04   -.151E-05 0.884E-06 -.317E-06
   0.236E+00 -.136E+00 -.341E-01   -.108E+00 0.624E-01 0.341E-01   0.430E-01 -.248E-01 -.271E-04   -.153E-05 0.867E-06 -.295E-06
   0.123E-04 -.112E-04 0.319E-04   0.527E-14 -.125E-13 0.246E-14   -.323E-03 0.198E-03 -.480E-03   0.123E-05 0.952E-07 0.393E-04

 POSITION                                       TOTAL-FORCE (eV/Angst)
      2.46524      0.00140      1.66786        -0.158750      0.177662     -0.142563
      4.93046      0.00140      1.65794        -0.069814      0.177375     -0.008233
      1.22914      2.13643      1.65794        -0.082174      0.170035     -0.007988
      3.69558      2.13643      1.65794        -0.082210      0.184958     -0.008004
      2.46402      0.00140     21.65794        -0.170918      0.098614     -0.000002
      4.93046      0.00140     21.65794        -0.170918      0.098614     -0.000002
      1.22914      2.13643     21.65794        -0.170918      0.098614     -0.000002
      3.69558      2.13643     21.65794        -0.170918      0.098614     -0.000002
     -0.00388      1.42496      1.65794         0.082687     -0.177417      0.012535
      2.46256      1.42496      1.65794         0.092376     -0.178212      0.052157
     -1.23876      3.55999      1.65794         0.109426     -0.167861      0.051488
      1.22768      3.55999      1.65794         0.108463     -0.186540      0.050622
     -0.00388      1.42496     21.65794         0.170917     -0.098615     -0.000002
      2.46256      1.42496     21.65794         0.170917     -0.098615     -0.000002
     -1.23876      3.55999     21.65794         0.170917     -0.098615     -0.000002
      1.22768      3.55999     21.65794         0.170917     -0.098615     -0.000002
    total drift:                               -0.000309      0.000187     -0.000408

  FREE ENERGIE OF THE ION-ELECTRON SYSTEM (eV)
  free  energy   TOTEN  =      -149.04096595 eV

  energy  without entropy=     -149.04096595  energy(sigma->0) =     -149.04096595

 BZINTS: Fermi energy: -2.748330; 64.000000 electrons
         Band energy:-760.591831;  BLOECHL correction:  0.000000