 vasp.5.3.5 31Mar14 (build Nov 02 2014 15:17:37) complex

 executed on        ion-Intel-MKL date 2016.08.14  08:31:35

 INCAR:
 POTCAR:   PAW_PBE C 08Apr2002
 POTCAR:   PAW_PBE C 08Apr2002
   VRHFIN =C: s2p2

   TITEL  = PAW_PBE C 08Apr2002
   POMASS =   12.011; ZVAL   =    4.000    mass and valenz
   ENMAX  =  400.000; ENMIN  =  300.000 eV
   QCUT   =   -5.516; QGAM   =   11.032    optimization parameters

   Description
     l     E      TYP  RCUT    TYP  RCUT
     0   .000     23  1.200
     0   .000     23  1.200
     1   .000     23  1.500
     1  2.500     23  1.500
     2   .000      7  1.500

 PAW_PBE C 08Apr2002                    :

 POSCAR: CIF file
  positions in direct lattice
  velocities in cartesian coordinates
 exchange correlation table for  LEXCH =        8
   RHO(1)=    0.500       N(1)  =     2000
   RHO(2)=  100.500       N(2)  =     4000

 ion  position               nearest neighbor table
   1  0.999  0.001  0.250-   3 1.42   3 1.42   3 1.42
   2  0.001  0.999  0.750-   4 1.42   4 1.42   4 1.42
   3  0.333  0.667  0.250-   1 1.42   1 1.42   1 1.42
   4  0.667  0.333  0.750-   2 1.42   2 1.42   2 1.42

  LATTYP: Found a base centered orthorhombic cell.
 ALAT       =     2.4647750986
 B/A-ratio  =     1.7336081796
 C/A-ratio  =     3.0942025264

  Lattice vectors:

 A1 = (   2.4664372490,  -0.0009596430,   0.0000000000)
 A2 = (  -1.2340496996,   2.1355174929,   0.0000000000)
 A3 = (   0.0000000000,   0.0000000000,   7.6265133370)

Analysis of symmetry for initial positions (statically):
 Subroutine PRICEL returns:
 Original cell was already a primitive cell.

 Routine SETGRP: Setting up the symmetry group for a
 base centered orthorhombic supercell.

 Subroutine GETGRP returns: Found  8 space group operations
 (whereof  4 operations were pure point group operations)
 out of a pool of  8 trial point group operations.

The static configuration has the point symmetry C_2h.
 The point group associated with its full space group is D_2h.

Analysis of symmetry for dynamics (positions and initial velocities):
 Subroutine PRICEL returns:
 Original cell was already a primitive cell.

 Routine SETGRP: Setting up the symmetry group for a
 base centered orthorhombic supercell.

 Subroutine GETGRP returns: Found  8 space group operations
 (whereof  4 operations were pure point group operations)
 out of a pool of  8 trial point group operations.

The dynamic configuration has the point symmetry C_2h.
 The point group associated with its full space group is D_2h.

 KPOINTS: B4C B11C-CBC

Automatic generation of k-mesh.
Space group operators:
 irot       det(A)        alpha          n_x          n_y          n_z        tau_x        tau_y        tau_z
    1     1.000000     0.000000     1.000000     0.000000     0.000000     0.000000     0.000000     0.000000
    2    -1.000000     0.000000     1.000000     0.000000     0.000000     0.000000     0.000000     0.000000
    3     1.000000   180.000000    -0.500000    -0.866025     0.000000     0.000000     0.000000     0.000000
    4    -1.000000   180.000000    -0.500000    -0.866025     0.000000     0.000000     0.000000     0.000000
    5     1.000000   180.000000     0.000000     0.000000     1.000000     0.000000     0.000000     0.500000
    6    -1.000000   180.000000     0.000000     0.000000     1.000000     0.000000     0.000000     0.500000
    7     1.000000   180.000000     0.866025    -0.500000     0.000000     0.000000     0.000000     0.500000
    8    -1.000000   180.000000     0.866025    -0.500000     0.000000     0.000000     0.000000     0.500000

 Subroutine IBZKPT returns following result:

 Found    455 irreducible k-points:

 Following reciprocal coordinates:
            Coordinates               Weight
  0.000000  0.000000  0.000000      1.000000
  0.055556 -0.000000  0.000000      4.000000
  0.111111 -0.000000  0.000000      4.000000
  0.166667 -0.000000  0.000000      4.000000
  0.222222 -0.000000  0.000000      4.000000
  0.277778 -0.000000  0.000000      4.000000
  0.333333 -0.000000  0.000000      4.000000
  0.388889 -0.000000  0.000000      4.000000
  0.444444 -0.000000  0.000000      4.000000
  0.500000 -0.000000  0.000000      2.000000
  0.055556  0.055556  0.000000      2.000000
  0.111111  0.055556  0.000000      4.000000
  0.166667  0.055556  0.000000      4.000000
  0.222222  0.055556  0.000000      4.000000
  0.277778  0.055556  0.000000      4.000000
  0.333333  0.055556  0.000000      4.000000
  0.388889  0.055556  0.000000      4.000000
  0.444444  0.055556  0.000000      4.000000
  0.500000  0.055556  0.000000      4.000000
 -0.444444  0.055556  0.000000      4.000000
 -0.388889  0.055556  0.000000      4.000000
 -0.333333  0.055556  0.000000      4.000000
 -0.277778  0.055556  0.000000      4.000000
 -0.222222  0.055556  0.000000      4.000000
 -0.166667  0.055556  0.000000      4.000000
 -0.111111  0.055556  0.000000      4.000000
 -0.055556  0.055556  0.000000      2.000000
  0.111111  0.111111  0.000000      2.000000
  0.166667  0.111111  0.000000      4.000000
  0.222222  0.111111  0.000000      4.000000
  0.277778  0.111111  0.000000      4.000000
  0.333333  0.111111  0.000000      4.000000
  0.388889  0.111111  0.000000      4.000000
  0.444444  0.111111  0.000000      4.000000
  0.500000  0.111111  0.000000      4.000000
 -0.444444  0.111111  0.000000      4.000000
 -0.388889  0.111111  0.000000      4.000000
 -0.333333  0.111111  0.000000      4.000000
 -0.277778  0.111111  0.000000      4.000000
 -0.222222  0.111111  0.000000      4.000000
 -0.166667  0.111111  0.000000      4.000000
 -0.111111  0.111111  0.000000      2.000000
  0.166667  0.166667  0.000000      2.000000
  0.222222  0.166667  0.000000      4.000000
  0.277778  0.166667  0.000000      4.000000
  0.333333  0.166667  0.000000      4.000000
  0.388889  0.166667  0.000000      4.000000
  0.444444  0.166667  0.000000      4.000000
  0.500000  0.166667  0.000000      4.000000
 -0.444444  0.166667  0.000000      4.000000
 -0.388889  0.166667  0.000000      4.000000
 -0.333333  0.166667  0.000000      4.000000
 -0.277778  0.166667  0.000000      4.000000
 -0.222222  0.166667  0.000000      4.000000
 -0.166667  0.166667  0.000000      2.000000
  0.222222  0.222222  0.000000      2.000000
  0.277778  0.222222  0.000000      4.000000
  0.333333  0.222222  0.000000      4.000000
  0.388889  0.222222  0.000000      4.000000
  0.444444  0.222222  0.000000      4.000000
[...]
  0.388889  0.333333  0.500000      4.000000
  0.444444  0.333333  0.500000      4.000000
  0.500000  0.333333  0.500000      4.000000
 -0.444444  0.333333  0.500000      4.000000
 -0.388889  0.333333  0.500000      4.000000
 -0.333333  0.333333  0.500000      2.000000
  0.388889  0.388889  0.500000      2.000000
  0.444444  0.388889  0.500000      4.000000
  0.500000  0.388889  0.500000      4.000000
 -0.444444  0.388889  0.500000      4.000000
 -0.388889  0.388889  0.500000      2.000000
  0.444444  0.444444  0.500000      2.000000
  0.500000  0.444444  0.500000      4.000000
 -0.444444  0.444444  0.500000      2.000000
  0.500000  0.500000  0.500000      1.000000

 Following cartesian coordinates:
            Coordinates               Weight
  0.000000  0.000000  0.000000      1.000000
  0.022530  0.013019  0.000000      4.000000
  0.045059  0.026038  0.000000      4.000000
  0.067589  0.039058  0.000000      4.000000
  0.090119  0.052077  0.000000      4.000000
  0.112648  0.065096  0.000000      4.000000
  0.135178  0.078115  0.000000      4.000000
  0.157708  0.091134  0.000000      4.000000
  0.180237  0.104154  0.000000      4.000000
  0.202767  0.117173  0.000000      2.000000
  0.022540  0.039040  0.000000      2.000000
  0.045069  0.052059  0.000000      4.000000
  0.067599  0.065079  0.000000      4.000000
  0.090129  0.078098  0.000000      4.000000
  0.112659  0.091117  0.000000      4.000000
  0.135188  0.104136  0.000000      4.000000
  0.157718  0.117155  0.000000      4.000000
  0.180248  0.130175  0.000000      4.000000
  0.202777  0.143194  0.000000      4.000000
 -0.180227 -0.078133  0.000000      4.000000
 -0.157698 -0.065114  0.000000      4.000000
 -0.135168 -0.052094  0.000000      4.000000
 -0.112638 -0.039075  0.000000      4.000000
 -0.090109 -0.026056  0.000000      4.000000
 -0.067579 -0.013037  0.000000      4.000000
 -0.045049 -0.000018  0.000000      4.000000
 -0.022520  0.013002  0.000000      2.000000
  0.045080  0.078080  0.000000      2.000000
  0.067609  0.091099  0.000000      4.000000
  0.090139  0.104119  0.000000      4.000000
  0.112669  0.117138  0.000000      4.000000
  0.135198  0.130157  0.000000      4.000000
  0.157728  0.143176  0.000000      4.000000
  0.180258  0.156195  0.000000      4.000000
  0.202787  0.169215  0.000000      4.000000
 -0.180217 -0.052112  0.000000      4.000000
 -0.157688 -0.039093  0.000000      4.000000
 -0.135158 -0.026073  0.000000      4.000000
 -0.112628 -0.013054  0.000000      4.000000
 -0.090098 -0.000035  0.000000      4.000000
 -0.067569  0.012984  0.000000      4.000000
 -0.045039  0.026003  0.000000      2.000000
  0.067619  0.117120  0.000000      2.000000
  0.090149  0.130139  0.000000      4.000000
  0.112679  0.143159  0.000000      4.000000
  0.135208  0.156178  0.000000      4.000000
  0.157738  0.169197  0.000000      4.000000
  0.180268  0.182216  0.000000      4.000000
  0.202798  0.195236  0.000000      4.000000
 -0.180207 -0.026091  0.000000      4.000000
 -0.157677 -0.013072  0.000000      4.000000
 -0.135148 -0.000053  0.000000      4.000000
 -0.112618  0.012967  0.000000      4.000000
 -0.090088  0.025986  0.000000      4.000000
 -0.067559  0.039005  0.000000      2.000000
  0.090159  0.156160  0.000000      2.000000
  0.112689  0.169180  0.000000      4.000000
  0.135219  0.182199  0.000000      4.000000
  0.157748  0.195218  0.000000      4.000000
  0.180278  0.208237  0.000000      4.000000
[...]
  0.157769  0.247260  0.065561      4.000000
  0.180298  0.260279  0.065561      4.000000
  0.202828  0.273298  0.065561      4.000000
 -0.180177  0.051972  0.065561      4.000000
 -0.157647  0.064991  0.065561      4.000000
 -0.135117  0.078010  0.065561      2.000000
  0.157779  0.273281  0.065561      2.000000
  0.180308  0.286300  0.065561      4.000000
  0.202838  0.299319  0.065561      4.000000
 -0.180167  0.077993  0.065561      4.000000
 -0.157637  0.091012  0.065561      2.000000
  0.180318  0.312321  0.065561      2.000000
  0.202848  0.325340  0.065561      4.000000
 -0.180156  0.104013  0.065561      2.000000
  0.202858  0.351361  0.065561      1.000000

 TETIRR: Found   3888 inequivalent tetrahedra from    15552

 I would recommend the setting:
   dimension x,y,z NGX =    20 NGY =   20 NGZ =   61
 SYSTEM =  graphite
 POSCAR =  CIF file

 Startparameter for this run:
   NWRITE =      2    write-flag & timer
   PREC   = accura    normal or accurate (medium, high low for compatibility)
   ISTART =      0    job   : 0-new  1-cont  2-samecut
   ICHARG =      2    charge: 1-file 2-atom 10-const
   ISPIN  =      1    spin polarized calculation?
   LNONCOLLINEAR =      F non collinear calculations
   LSORBIT =      F    spin-orbit coupling
[...]
 k-point 32 :   0.3333 0.1111 0.0000  plane waves:    1343
 k-point 33 :   0.3889 0.1111 0.0000  plane waves:    1351
 k-point 34 :   0.4444 0.1111 0.0000  plane waves:    1353
 k-point 35 :   0.5000 0.1111 0.0000  plane waves:    1353
 k-point 36 :  -0.4444 0.1111 0.0000  plane waves:    1341
 k-point 37 :  -0.3889 0.1111 0.0000  plane waves:    1336
 k-point 38 :  -0.3333 0.1111 0.0000  plane waves:    1333
 k-point 39 :  -0.2778 0.1111 0.0000  plane waves:    1330
 k-point 40 :  -0.2222 0.1111 0.0000  plane waves:    1333
 k-point 41 :  -0.1667 0.1111 0.0000  plane waves:    1326
 k-point 42 :  -0.1111 0.1111 0.0000  plane waves:    1315
 k-point 43 :   0.1667 0.1667 0.0000  plane waves:    1337
 k-point 44 :   0.2222 0.1667 0.0000  plane waves:    1324
 k-point 45 :   0.2778 0.1667 0.0000  plane waves:    1337
 k-point 46 :   0.3333 0.1667 0.0000  plane waves:    1351
 k-point 47 :   0.3889 0.1667 0.0000  plane waves:    1361
 k-point 48 :   0.4444 0.1667 0.0000  plane waves:    1361
 k-point 49 :   0.5000 0.1667 0.0000  plane waves:    1353
 k-point 50 :  -0.4444 0.1667 0.0000  plane waves:    1337
 k-point 51 :  -0.3889 0.1667 0.0000  plane waves:    1326
 k-point 52 :  -0.3333 0.1667 0.0000  plane waves:    1337
 k-point 53 :  -0.2778 0.1667 0.0000  plane waves:    1330
 k-point 54 :  -0.2222 0.1667 0.0000  plane waves:    1333
 k-point 55 :  -0.1667 0.1667 0.0000  plane waves:    1335
 k-point 56 :   0.2222 0.2222 0.0000  plane waves:    1347
 k-point 57 :   0.2778 0.2222 0.0000  plane waves:    1356
 k-point 58 :   0.3333 0.2222 0.0000  plane waves:    1362
 k-point 59 :   0.3889 0.2222 0.0000  plane waves:    1365
 k-point 60 :   0.4444 0.2222 0.0000  plane waves:    1364
[...]
 k-point 85 :   0.5000 0.3889 0.0000  plane waves:    1353
 k-point 86 :  -0.4444 0.3889 0.0000  plane waves:    1338
 k-point 87 :  -0.3889 0.3889 0.0000  plane waves:    1340
 k-point 88 :   0.4444 0.4444 0.0000  plane waves:    1355
 k-point 89 :   0.5000 0.4444 0.0000  plane waves:    1338
 k-point 90 :  -0.4444 0.4444 0.0000  plane waves:    1330
 k-point 91 :   0.5000 0.5000 0.0000  plane waves:    1340
 k-point 92 :   0.0000 0.0000 0.1250  plane waves:    1327
 k-point 93 :   0.0556-0.0000 0.1250  plane waves:    1310
 k-point 94 :   0.1111-0.0000 0.1250  plane waves:    1318
 k-point 95 :   0.1667-0.0000 0.1250  plane waves:    1329
 k-point 96 :   0.2222-0.0000 0.1250  plane waves:    1337
 k-point 97 :   0.2778-0.0000 0.1250  plane waves:    1336
 k-point 98 :   0.3333-0.0000 0.1250  plane waves:    1337
 k-point 99 :   0.3889-0.0000 0.1250  plane waves:    1337
 k-point ** :   0.4444-0.0000 0.1250  plane waves:    1342
 k-point ** :   0.5000-0.0000 0.1250  plane waves:    1330
 k-point ** :   0.0556 0.0556 0.1250  plane waves:    1308
 k-point ** :   0.1111 0.0556 0.1250  plane waves:    1329
 k-point ** :   0.1667 0.0556 0.1250  plane waves:    1329
 k-point ** :   0.2222 0.0556 0.1250  plane waves:    1335
 k-point ** :   0.2778 0.0556 0.1250  plane waves:    1332
 k-point ** :   0.3333 0.0556 0.1250  plane waves:    1341
 k-point ** :   0.3889 0.0556 0.1250  plane waves:    1341
 k-point ** :   0.4444 0.0556 0.1250  plane waves:    1341
 k-point ** :   0.5000 0.0556 0.1250  plane waves:    1341
 k-point ** :  -0.4444 0.0556 0.1250  plane waves:    1341
 k-point ** :  -0.3889 0.0556 0.1250  plane waves:    1340
 k-point ** :  -0.3333 0.0556 0.1250  plane waves:    1333
 k-point ** :  -0.2778 0.0556 0.1250  plane waves:    1335
 k-point ** :  -0.2222 0.0556 0.1250  plane waves:    1331
 k-point ** :  -0.1667 0.0556 0.1250  plane waves:    1328
 k-point ** :  -0.1111 0.0556 0.1250  plane waves:    1311
 k-point ** :  -0.0556 0.0556 0.1250  plane waves:    1310
 k-point ** :   0.1111 0.1111 0.1250  plane waves:    1329
 k-point ** :   0.1667 0.1111 0.1250  plane waves:    1332
 k-point ** :   0.2222 0.1111 0.1250  plane waves:    1332
 k-point ** :   0.2778 0.1111 0.1250  plane waves:    1334
 k-point ** :   0.3333 0.1111 0.1250  plane waves:    1339
 k-point ** :   0.3889 0.1111 0.1250  plane waves:    1351
 k-point ** :   0.4444 0.1111 0.1250  plane waves:    1349
 k-point ** :   0.5000 0.1111 0.1250  plane waves:    1351
 k-point ** :  -0.4444 0.1111 0.1250  plane waves:    1337
 k-point ** :  -0.3889 0.1111 0.1250  plane waves:    1335
 k-point ** :  -0.3333 0.1111 0.1250  plane waves:    1332
 k-point ** :  -0.2778 0.1111 0.1250  plane waves:    1333
 k-point ** :  -0.2222 0.1111 0.1250  plane waves:    1329
 k-point ** :  -0.1667 0.1111 0.1250  plane waves:    1328
 k-point ** :  -0.1111 0.1111 0.1250  plane waves:    1317
 k-point ** :   0.1667 0.1667 0.1250  plane waves:    1335
 k-point ** :   0.2222 0.1667 0.1250  plane waves:    1330
 k-point ** :   0.2778 0.1667 0.1250  plane waves:    1341
 k-point ** :   0.3333 0.1667 0.1250  plane waves:    1348
 k-point ** :   0.3889 0.1667 0.1250  plane waves:    1360
 k-point ** :   0.4444 0.1667 0.1250  plane waves:    1359
 k-point ** :   0.5000 0.1667 0.1250  plane waves:    1347
 k-point ** :  -0.4444 0.1667 0.1250  plane waves:    1340
 k-point ** :  -0.3889 0.1667 0.1250  plane waves:    1328
 k-point ** :  -0.3333 0.1667 0.1250  plane waves:    1336
 k-point ** :  -0.2778 0.1667 0.1250  plane waves:    1335
 k-point ** :  -0.2222 0.1667 0.1250  plane waves:    1332
 k-point ** :  -0.1667 0.1667 0.1250  plane waves:    1329
 k-point ** :   0.2222 0.2222 0.1250  plane waves:    1345
 k-point ** :   0.2778 0.2222 0.1250  plane waves:    1353
 k-point ** :   0.3333 0.2222 0.1250  plane waves:    1358
 k-point ** :   0.3889 0.2222 0.1250  plane waves:    1360
 k-point ** :   0.4444 0.2222 0.1250  plane waves:    1357
 k-point ** :   0.5000 0.2222 0.1250  plane waves:    1354
 k-point ** :  -0.4444 0.2222 0.1250  plane waves:    1344
 k-point ** :  -0.3889 0.2222 0.1250  plane waves:    1328
 k-point ** :  -0.3333 0.2222 0.1250  plane waves:    1333
 k-point ** :  -0.2778 0.2222 0.1250  plane waves:    1335
 k-point ** :  -0.2222 0.2222 0.1250  plane waves:    1337
 k-point ** :   0.2778 0.2778 0.1250  plane waves:    1359
 k-point ** :   0.3333 0.2778 0.1250  plane waves:    1366
[...]
 k-point ** :   0.3889 0.3333 0.5000  plane waves:    1354
 k-point ** :   0.4444 0.3333 0.5000  plane waves:    1348
 k-point ** :   0.5000 0.3333 0.5000  plane waves:    1350
 k-point ** :  -0.4444 0.3333 0.5000  plane waves:    1346
 k-point ** :  -0.3889 0.3333 0.5000  plane waves:    1344
 k-point ** :  -0.3333 0.3333 0.5000  plane waves:    1342
 k-point ** :   0.3889 0.3889 0.5000  plane waves:    1358
 k-point ** :   0.4444 0.3889 0.5000  plane waves:    1348
 k-point ** :   0.5000 0.3889 0.5000  plane waves:    1346
 k-point ** :  -0.4444 0.3889 0.5000  plane waves:    1344
 k-point ** :  -0.3889 0.3889 0.5000  plane waves:    1340
 k-point ** :   0.4444 0.4444 0.5000  plane waves:    1344
 k-point ** :   0.5000 0.4444 0.5000  plane waves:    1338
 k-point ** :  -0.4444 0.4444 0.5000  plane waves:    1354
 k-point ** :   0.5000 0.5000 0.5000  plane waves:    1340

 maximum and minimum number of plane-waves per node :       462      432

 maximum number of plane-waves:      1377
 maximum index in each direction:
   IXMAX=    5   IYMAX=    4   IZMAX=   15
   IXMIN=   -5   IYMIN=   -5   IZMIN=  -15

 WARNING: aliasing errors must be expected set NGX to  22 to avoid them
 NGY is ok and might be reduce to  20
 NGZ is ok and might be reduce to  62
 aliasing errors are usually negligible using standard VASP settings
 and one can safely disregard these warnings

 parallel 3D FFT for wavefunctions:
    minimum data exchange during FFTs selected (reduces bandwidth)
 parallel 3D FFT for charge:
    minimum data exchange during FFTs selected (reduces bandwidth)

 Broyden mixing: mesh for mixing (old mesh)
   NGX =  9   NGY =  9   NGZ = 31
  (NGX  = 40   NGY  = 40   NGZ  =128)
  gives a total of   2511 points

 initial charge density was supplied:
 charge density of overlapping atoms calculated
 number of electron      16.0000000 magnetization
 keeping initial charge density in first step

 Maximum index for augmentation-charges         1373 (set IRDMAX)

 First call to EWALD:  gamma=   0.518
 Maximum number of real-space cells 4x 4x 2
 Maximum number of reciprocal cells 2x 2x 6

 FEWALD executed in parallel

----------------------------------------- Iteration    1(   1)  ---------------------------------------

 BZINTS: Fermi energy: 13.073177; 16.000000 electrons
         Band energy: -24.091525;  BLOECHL correction: -0.362795

 eigenvalue-minimisations  : 10936
 total energy-change (2. order) : 0.6457688E+02  (-0.8817009E+03)
 number of electron      16.0000000 magnetization
 augmentation part       16.0000000 magnetization

 Free energy of the ion-electron system (eV)
  alpha Z        PSCENC =        32.46162795
  Ewald energy   TEWEN  =      -376.69773741
  -Hartree energ DENC   =      -206.32073748
  -exchange      EXHF   =         0.00000000
  -V(xc)+E(xc)   XCENC  =        55.22602108
  PAW double counting   =       151.32577238     -155.92769107
  entropy T*S    EENTRO =         0.00000000
  eigenvalues    EBANDS =       -24.09152495
  atomic energy  EATOM  =       588.60115103
  free energy    TOTEN  =        64.57688155 eV

  energy without entropy =       64.57688155  energy(sigma->0) =       64.57688155

[...]

 BZINTS: Fermi energy:  2.251945; 16.000000 electrons
         Band energy:-122.965746;  BLOECHL correction:  0.000000

 eigenvalue-minimisations  : 15820
 total energy-change (2. order) :-0.9887422E+02  (-0.9015303E+02)
 number of electron      16.0000000 magnetization
 augmentation part       16.0000000 magnetization

[...]

 Broyden mixing:
  rms(total) = 0.78138E+00    rms(broyden)= 0.78130E+00
  rms(prec ) = 0.11754E+01
  weight for this iteration     100.00

[...]

 BZINTS: Fermi energy:  2.726889; 16.000000 electrons
         Band energy:-108.782872;  BLOECHL correction: -0.000001

[...]

 eigenvalues of (default mixing * dielectric matrix)
  average eigenvalue GAMMA=   2.0346
  2.0346

[...]

 eigenvalue-minimisations  : 12948
 total energy-change (2. order) : 0.6154193E+00  (-0.1986364E+00)
 number of electron      15.9999999 magnetization
 augmentation part        0.3855181 magnetization

[...]

 Broyden mixing:
  rms(total) = 0.22705E-03    rms(broyden)= 0.22689E-03
  rms(prec ) = 0.35316E-03
  weight for this iteration     100.00

 eigenvalues of (default mixing * dielectric matrix)
  average eigenvalue GAMMA=   1.8741
  2.9772  0.9771  0.9771  2.4156  1.9489  1.9489

[...]

----------------------------------------- Iteration    1(  12)  ---------------------------------------

 BZINTS: Fermi energy:  3.625774; 16.000000 electrons
         Band energy: -88.017331;  BLOECHL correction: -0.000003

 eigenvalue-minimisations  : 10496
 total energy-change (2. order) :-0.8783502E-06  (-0.7953496E-07)
 number of electron      15.9999999 magnetization
 augmentation part        0.3834231 magnetization

 Free energy of the ion-electron system (eV)
  alpha Z        PSCENC =        32.46162795
  Ewald energy   TEWEN  =      -376.69773741
  -Hartree energ DENC   =      -245.63193661
  -exchange      EXHF   =         0.00000000
  -V(xc)+E(xc)   XCENC  =        57.56313347
  PAW double counting   =       277.69851530     -282.86332368
  entropy T*S    EENTRO =         0.00000000
  eigenvalues    EBANDS =       -88.01733054
  atomic energy  EATOM  =       588.60115103
  free energy    TOTEN  =       -36.88590048 eV

  energy without entropy =      -36.88590048  energy(sigma->0) =      -36.88590048

 average (electrostatic) potential at core
  the test charge radii are     0.6991
  (the norm of the test charge is              1.0000)
       1 -51.7956       2 -51.7956       3 -51.7901       4 -51.7901

 E-fermi :   3.6258     XC(G=0):  -9.4315     alpha+bet : -9.9988

 k-point     1 :       0.0000    0.0000    0.0000
  band No.  band energies     occupation
      1     -15.9300      2.00000
      2     -15.8266      2.00000
      3      -4.4483      2.00000
      4      -3.4751      2.00000
      5       0.5980      2.00000
      6       0.6025      2.00000
      7       0.6146      2.00000
      8       0.6189      2.00000
      9       7.1177      0.00000
     10      11.6003      0.00000
     11      11.9482      0.00000
     12      11.9623      0.00000

[...]

 k-point   455 :       0.5000    0.5000    0.5000
  band No.  band energies     occupation
      1     -10.6439      2.00000
      2     -10.6439      2.00000
      3      -9.5945      2.00000
      4      -9.5945      2.00000
      5      -2.7571      2.00000
      6      -2.7571      2.00000
      7       1.2620      2.00000
      8       1.2620      2.00000
      9       5.2899      0.00000
     10       5.2899      0.00000
     11      11.0352      0.00000
     12      11.0352      0.00000

 soft charge-density along one line, spin component           1
         0         1         2         3         4         5         6         7         8         9
 total charge-density along one line

------------------------ aborting loop because EDIFF is reached ----------------------------------------

         DFTD3 V3.0 Rev 1
 IVDW         = 12
 DF pbe
 parameters
 VDW_S6       =    1.0000
 VDW_S8       =    0.7875
 VDW_A1       =    0.4289
 VDW_A2       =    4.4407
 k1-k3        =   16.0000    1.3333   -4.0000
 VDW_RADIUS   =   50.2022 A
 VDW_CNRADIUS =   21.1671 A
 Edisp (eV)   -0.53694

 E6    (eV) :    -0.3869
 E8    (eV) :    -0.1500
 % E8        : 27.93

  FORCE on cell =-STRESS in cart. coord.  units (eV):
  Direction    XX          YY          ZZ          XY          YZ          ZX
  Alpha Z    32.46163    32.46163    32.46163
  Ewald     161.14813   161.09002  -698.93639    -0.05032     0.00000     0.00000
  Hartree   223.03058   223.03458  -200.42831     0.00347    -0.00000    -0.00000
  E(xc)     -58.37970   -58.38046   -60.66370    -0.00066    -0.00000    -0.00000
  Local    -582.68238  -582.64467   666.96684     0.03266     0.00000     0.00000
  n-local   -14.45377   -13.70257   -12.80983    -0.23361     0.00362    -0.00362
  augment    -1.54654    -1.54641    -1.41715     0.00012     0.00000     0.00000
  Kinetic   243.86371   236.51040   274.91296     2.22558    -0.05344     0.05019
  Fock        0.00000     0.00000     0.00000     0.00000     0.00000     0.00000
  vdW        -0.10190    -0.10087    -0.61784     0.00089     0.00000    -0.00000
  Total       0.00140     0.05999    -0.53179     0.05074    -0.00000     0.00000
  in kB       0.05571     2.39315   -21.21544     2.02428    -0.00000     0.00000

 VOLUME and BASIS-vectors are now :
  energy-cutoff  :      600.00
  volume of cell :       40.16
      direct lattice vectors                 reciprocal lattice vectors
     2.466437249 -0.000959643  0.000000000     0.405534294  0.234345762  0.000000000
    -1.234049700  2.135517493  0.000000000     0.000182236  0.468375882  0.000000000
     0.000000000  0.000000000  7.626513337     0.000000000  0.000000000  0.131121517

  length of vectors
     2.466437436  2.466437436  7.626513337     0.468375917  0.468375917  0.131121517

 FORCES acting on ions
    electron-ion (+dipol)            ewald-force                    non-local-force                 convergence-correction
   -.120E+00 0.694E-01 0.151E-11   0.108E+00 -.624E-01 -.195E-13   -.635E-02 0.367E-02 -.163E-18   0.356E-05 -.206E-05 -.230E-12
   0.120E+00 -.694E-01 0.391E-12   -.108E+00 0.623E-01 0.195E-13   0.635E-02 -.367E-02 0.542E-19   -.356E-05 0.206E-05 0.251E-12
   0.119E+00 -.687E-01 0.126E-11   -.108E+00 0.623E-01 -.195E-13   0.580E-02 -.335E-02 0.108E-18   -.540E-05 0.312E-05 -.234E-12
   -.119E+00 0.687E-01 -.763E-12   0.108E+00 -.623E-01 0.195E-13   -.580E-02 0.335E-02 -.217E-18   0.541E-05 -.312E-05 0.252E-12
   -.677E-05 -.117E-04 0.240E-11   0.451E-14 0.119E-14 0.000E+00   0.111E-15 0.000E+00 -.217E-18   -.245E-09 -.424E-09 0.390E-13

 POSITION                                       TOTAL-FORCE (eV/Angst)
      2.46402      0.00044      1.90663        -0.018665      0.010776     -0.000000
     -1.23163      2.13412      5.71989         0.018665     -0.010776      0.000000
     -0.00332      1.42496      1.90663         0.017035     -0.009835     -0.000000
      1.23571      0.70960      5.71989        -0.017035      0.009835      0.000000
    total drift:                               -0.000007     -0.000012      0.000000

  FREE ENERGIE OF THE ION-ELECTRON SYSTEM (eV)
  free  energy   TOTEN  =       -37.42284325 eV

  energy  without entropy=      -37.42284325  energy(sigma->0) =      -37.42284325

 reached required accuracy - stopping structural energy minimisation
 BZINTS: Fermi energy:  3.625774; 16.000000 electrons
         Band energy: -88.017331;  BLOECHL correction: -0.000003