 vasp.5.3.5 31Mar14 (build Nov 02 2014 15:17:37) complex

 executed on        ion-Intel-MKL date 2017.02.12  19:07:51

 INCAR:
 POTCAR:   PAW_PBE C 08Apr2002
 POTCAR:   PAW_PBE C 08Apr2002
   VRHFIN =C: s2p2

   TITEL  = PAW_PBE C 08Apr2002
   POMASS =   12.011; ZVAL   =    4.000    mass and valenz
   ENMAX  =  400.000; ENMIN  =  300.000 eV
   QCUT   =   -5.516; QGAM   =   11.032    optimization parameters

   Description
     l     E      TYP  RCUT    TYP  RCUT
     0   .000     23  1.200
     0   .000     23  1.200
     1   .000     23  1.500
     1  2.500     23  1.500
     2   .000      7  1.500

 PAW_PBE C 08Apr2002                    :

 POSCAR: cubic diamond    comment line
  positions in direct lattice
 exchange correlation table for  LEXCH =        8
   RHO(1)=    0.500       N(1)  =     2000
   RHO(2)=  100.500       N(2)  =     4000

 ion  position               nearest neighbor table
   1  0.000  0.000  0.000-   2 1.62   2 1.62   2 1.62   2 1.62
   2  0.250  0.250  0.250-   1 1.62   1 1.62   1 1.62   1 1.62

  LATTYP: Found a face centered cubic cell.
 ALAT       =     3.7486898074

  Lattice vectors:

 A1 = (   2.6507239835,   0.0000000000,   0.0000000000)
 A2 = (   1.3253619917,   2.2955943081,   0.0000000000)
 A3 = (   1.3253619917,   0.7651981027,   2.1643070694)

Analysis of symmetry for initial positions (statically):
 Subroutine PRICEL returns:
 Original cell was already a primitive cell.

 Routine SETGRP: Setting up the symmetry group for a
 face centered cubic supercell.

 Subroutine GETGRP returns: Found 48 space group operations
 (whereof 24 operations were pure point group operations)
 out of a pool of 48 trial point group operations.

The static configuration has the point symmetry T_d .
 The point group associated with its full space group is O_h .

Analysis of symmetry for dynamics (positions and initial velocities):
 Subroutine PRICEL returns:
 Original cell was already a primitive cell.

 Routine SETGRP: Setting up the symmetry group for a
 face centered cubic supercell.

 Subroutine GETGRP returns: Found 48 space group operations
 (whereof 24 operations were pure point group operations)
 out of a pool of 48 trial point group operations.

The dynamic configuration has the point symmetry T_d .
 The point group associated with its full space group is O_h .

 KPOINTS: B4C B11C-CBC

Automatic generation of k-mesh.
Space group operators:
 irot       det(A)        alpha          n_x          n_y          n_z        tau_x        tau_y        tau_z
    1     1.000000     0.000000     1.000000     0.000000     0.000000     0.000000     0.000000     0.000000
    2     1.000000   120.000000    -0.816497    -0.471405    -0.333333     0.000000     0.000000     0.000000
    3     1.000000   120.000000     0.816497     0.471405     0.333333     0.000000     0.000000     0.000000
    4    -1.000000    90.000000    -0.707107    -0.408248     0.577350     0.000000     0.000000     0.000000
    5    -1.000000   180.000000     1.000000     0.000000     0.000000     0.000000     0.000000     0.000000
    6    -1.000000    90.000000     0.707107    -0.408248     0.577350     0.000000     0.000000     0.000000
    7     1.000000   180.000000     0.707107     0.408248    -0.577350     0.000000     0.000000     0.000000
    8     1.000000   120.000000     0.816497    -0.471405    -0.333333     0.000000     0.000000     0.000000
    9     1.000000   120.000000    -0.000000    -0.942809     0.333333     0.000000     0.000000     0.000000
   10    -1.000000    90.000000     0.707107     0.408248    -0.577350     0.000000     0.000000     0.000000
   11    -1.000000    90.000000     0.000000    -0.816497    -0.577350     0.000000     0.000000     0.000000
   12    -1.000000   180.000000     0.500000     0.866025     0.000000     0.000000     0.000000     0.000000
   13     1.000000   120.000000    -0.000000     0.942809    -0.333333     0.000000     0.000000     0.000000
   14     1.000000   120.000000    -0.000000     0.000000    -1.000000     0.000000     0.000000     0.000000
   15     1.000000   180.000000     0.000000    -0.816497    -0.577350     0.000000     0.000000     0.000000
   16    -1.000000    90.000000    -0.707107     0.408248    -0.577350     0.000000     0.000000     0.000000
   17    -1.000000   180.000000     0.500000     0.288675     0.816497     0.000000     0.000000     0.000000
   18    -1.000000    90.000000     0.000000     0.816497     0.577350     0.000000     0.000000     0.000000
   19     1.000000   120.000000    -0.816497     0.471405     0.333333     0.000000     0.000000     0.000000
   20     1.000000   180.000000     0.707107    -0.408248     0.577350     0.000000     0.000000     0.000000
   21     1.000000   120.000000    -0.000000     0.000000     1.000000     0.000000     0.000000     0.000000
   22    -1.000000   180.000000     0.000000    -0.577350     0.816497     0.000000     0.000000     0.000000
   23    -1.000000   180.000000    -0.500000     0.866025     0.000000     0.000000     0.000000     0.000000
   24    -1.000000   180.000000    -0.500000     0.288675     0.816497     0.000000     0.000000     0.000000
   25    -1.000000     0.000000     1.000000     0.000000     0.000000     0.250000     0.250000     0.250000
   26    -1.000000   120.000000    -0.816497    -0.471405    -0.333333     0.250000     0.250000     0.250000
   27    -1.000000   120.000000     0.816497     0.471405     0.333333     0.250000     0.250000     0.250000
   28     1.000000    90.000000    -0.707107    -0.408248     0.577350     0.250000     0.250000     0.250000
   29     1.000000   180.000000     1.000000     0.000000     0.000000     0.250000     0.250000     0.250000
   30     1.000000    90.000000     0.707107    -0.408248     0.577350     0.250000     0.250000     0.250000
   31    -1.000000   180.000000     0.707107     0.408248    -0.577350     0.250000     0.250000     0.250000
   32    -1.000000   120.000000     0.816497    -0.471405    -0.333333     0.250000     0.250000     0.250000
   33    -1.000000   120.000000    -0.000000    -0.942809     0.333333     0.250000     0.250000     0.250000
   34     1.000000    90.000000     0.707107     0.408248    -0.577350     0.250000     0.250000     0.250000
   35     1.000000    90.000000     0.000000    -0.816497    -0.577350     0.250000     0.250000     0.250000
   36     1.000000   180.000000     0.500000     0.866025     0.000000     0.250000     0.250000     0.250000
   37    -1.000000   120.000000    -0.000000     0.942809    -0.333333     0.250000     0.250000     0.250000
   38    -1.000000   120.000000    -0.000000     0.000000    -1.000000     0.250000     0.250000     0.250000
   39    -1.000000   180.000000     0.000000    -0.816497    -0.577350     0.250000     0.250000     0.250000
   40     1.000000    90.000000    -0.707107     0.408248    -0.577350     0.250000     0.250000     0.250000
   41     1.000000   180.000000     0.500000     0.288675     0.816497     0.250000     0.250000     0.250000
   42     1.000000    90.000000     0.000000     0.816497     0.577350     0.250000     0.250000     0.250000
   43    -1.000000   120.000000    -0.816497     0.471405     0.333333     0.250000     0.250000     0.250000
   44    -1.000000   180.000000     0.707107    -0.408248     0.577350     0.250000     0.250000     0.250000
   45    -1.000000   120.000000    -0.000000     0.000000     1.000000     0.250000     0.250000     0.250000
   46     1.000000   180.000000     0.000000    -0.577350     0.816497     0.250000     0.250000     0.250000
   47     1.000000   180.000000    -0.500000     0.866025     0.000000     0.250000     0.250000     0.250000
   48     1.000000   180.000000    -0.500000     0.288675     0.816497     0.250000     0.250000     0.250000

 Subroutine IBZKPT returns following result:

 Found    194 irreducible k-points:

 Following reciprocal coordinates:
            Coordinates               Weight
  0.000000  0.000000  0.000000      1.000000
  0.083333  0.000000 -0.000000      4.000000
  0.166667 -0.000000 -0.000000      4.000000
  0.250000 -0.000000 -0.000000      8.000000
  0.333333  0.000000 -0.000000      4.000000
  0.416667 -0.000000 -0.000000      4.000000
  0.500000 -0.000000 -0.000000      4.000000
  0.083333  0.083333 -0.000000      2.000000
  0.166667  0.083333 -0.000000      4.000000
  0.250000  0.083333 -0.000000     12.000000
  0.333333  0.083333  0.000000      8.000000
  0.416667  0.083333 -0.000000      4.000000
  0.500000  0.083333 -0.000000     12.000000
 -0.416667  0.083333  0.000000      8.000000
 -0.333333  0.083333  0.000000      4.000000
 -0.250000  0.083333  0.000000     12.000000
 -0.166667  0.083333  0.000000      8.000000
 -0.083333  0.083333  0.000000      2.000000
  0.166667  0.166667 -0.000000      2.000000
  0.250000  0.166667 -0.000000     12.000000
  0.333333  0.166667 -0.000000      4.000000
  0.416667  0.166667 -0.000000      8.000000
  0.500000  0.166667 -0.000000     12.000000
 -0.416667  0.166667  0.000000      4.000000
 -0.333333  0.166667  0.000000      8.000000
 -0.250000  0.166667  0.000000     12.000000
 -0.166667  0.166667  0.000000      2.000000
  0.250000  0.250000 -0.000000      6.000000
  0.333333  0.250000  0.000000     12.000000
  0.416667  0.250000 -0.000000     12.000000
  0.500000  0.250000 -0.000000     24.000000
 -0.416667  0.250000  0.000000     12.000000
 -0.333333  0.250000 -0.000000     12.000000
 -0.250000  0.250000  0.000000     12.000000
  0.333333  0.333333 -0.000000      2.000000
  0.416667  0.333333 -0.000000      4.000000
  0.500000  0.333333 -0.000000     12.000000
 -0.416667  0.333333  0.000000      8.000000
 -0.333333  0.333333  0.000000      2.000000
  0.416667  0.416667 -0.000000      2.000000
  0.500000  0.416667 -0.000000     12.000000
 -0.416667  0.416667  0.000000      2.000000
  0.500000  0.500000 -0.000000      3.000000
  0.000000  0.000000  0.125000      2.000000
  0.083333  0.000000  0.125000      4.000000
  0.166667 -0.000000  0.125000      4.000000
  0.250000 -0.000000  0.125000      6.000000
  0.333333  0.000000  0.125000      4.000000
  0.416667 -0.000000  0.125000      4.000000
  0.500000 -0.000000  0.125000      6.000000
 -0.416667  0.000000  0.125000      4.000000
 -0.333333 -0.000000  0.125000      4.000000
 -0.250000  0.000000  0.125000      6.000000
 -0.166667 -0.000000  0.125000      4.000000
 -0.083333 -0.000000  0.125000      4.000000
  0.083333  0.083333  0.125000      2.000000
  0.166667  0.083333  0.125000      4.000000
  0.250000  0.083333  0.125000      8.000000
  0.333333  0.083333  0.125000      4.000000
  0.416667  0.083333  0.125000      4.000000
[...]
 -0.333333 -0.333333  0.375000      2.000000
 -0.166667 -0.333333  0.375000      4.000000
 -0.083333 -0.333333  0.375000      4.000000
 -0.166667 -0.250000  0.375000      8.000000
 -0.166667 -0.166667  0.375000      2.000000
 -0.083333 -0.166667  0.375000      4.000000
 -0.083333 -0.083333  0.375000      2.000000
  0.166667  0.083333  0.500000      8.000000
  0.416667  0.083333  0.500000      4.000000
 -0.416667  0.083333  0.500000      4.000000
 -0.333333  0.083333  0.500000      8.000000
[...]
 k-point 17 :  -0.1667 0.0833 0.0000  plane waves:     671
 k-point 18 :  -0.0833 0.0833 0.0000  plane waves:     676
 k-point 19 :   0.1667 0.1667-0.0000  plane waves:     673
 k-point 20 :   0.2500 0.1667-0.0000  plane waves:     674
 k-point 21 :   0.3333 0.1667-0.0000  plane waves:     675
 k-point 22 :   0.4167 0.1667-0.0000  plane waves:     676
 k-point 23 :   0.5000 0.1667-0.0000  plane waves:     678
 k-point 24 :  -0.4167 0.1667 0.0000  plane waves:     679
 k-point 25 :  -0.3333 0.1667 0.0000  plane waves:     677
 k-point 26 :  -0.2500 0.1667 0.0000  plane waves:     672
 k-point 27 :  -0.1667 0.1667 0.0000  plane waves:     662
 k-point 28 :   0.2500 0.2500-0.0000  plane waves:     681
 k-point 29 :   0.3333 0.2500 0.0000  plane waves:     678
 k-point 30 :   0.4167 0.2500-0.0000  plane waves:     675
 k-point 31 :   0.5000 0.2500-0.0000  plane waves:     684
 k-point 32 :  -0.4167 0.2500 0.0000  plane waves:     685
 k-point 33 :  -0.3333 0.2500-0.0000  plane waves:     682
 k-point 34 :  -0.2500 0.2500 0.0000  plane waves:     676
 k-point 35 :   0.3333 0.3333-0.0000  plane waves:     680
 k-point 36 :   0.4167 0.3333-0.0000  plane waves:     681
 k-point 37 :   0.5000 0.3333-0.0000  plane waves:     674
 k-point 38 :  -0.4167 0.3333 0.0000  plane waves:     683
 k-point 39 :  -0.3333 0.3333 0.0000  plane waves:     680
 k-point 40 :   0.4167 0.4167-0.0000  plane waves:     676
 k-point 41 :   0.5000 0.4167-0.0000  plane waves:     676
 k-point 42 :  -0.4167 0.4167 0.0000  plane waves:     684
 k-point 43 :   0.5000 0.5000-0.0000  plane waves:     692
 k-point 44 :   0.0000 0.0000 0.1250  plane waves:     667
 k-point 45 :   0.0833 0.0000 0.1250  plane waves:     674
 k-point 46 :   0.1667-0.0000 0.1250  plane waves:     674
 k-point 47 :   0.2500-0.0000 0.1250  plane waves:     672
 k-point 48 :   0.3333 0.0000 0.1250  plane waves:     674
 k-point 49 :   0.4167-0.0000 0.1250  plane waves:     676
 k-point 50 :   0.5000-0.0000 0.1250  plane waves:     677
 k-point 51 :  -0.4167 0.0000 0.1250  plane waves:     676
 k-point 52 :  -0.3333-0.0000 0.1250  plane waves:     673
 k-point 53 :  -0.2500 0.0000 0.1250  plane waves:     664
 k-point 54 :  -0.1667-0.0000 0.1250  plane waves:     669
 k-point 55 :  -0.0833-0.0000 0.1250  plane waves:     672
 k-point 56 :   0.0833 0.0833 0.1250  plane waves:     680
 k-point 57 :   0.1667 0.0833 0.1250  plane waves:     673
 k-point 58 :   0.2500 0.0833 0.1250  plane waves:     671
 k-point 59 :   0.3333 0.0833 0.1250  plane waves:     668
 k-point 60 :   0.4167 0.0833 0.1250  plane waves:     669
[...]
 k-point 85 :  -0.2500 0.3333 0.1250  plane waves:     680
 k-point 86 :  -0.1667 0.3333 0.1250  plane waves:     677
 k-point 87 :  -0.0833 0.3333 0.1250  plane waves:     676
 k-point 88 :   0.4167 0.4167 0.1250  plane waves:     682
 k-point 89 :   0.5000 0.4167 0.1250  plane waves:     675
 k-point 90 :  -0.4167 0.4167 0.1250  plane waves:     682
 k-point 91 :  -0.3333 0.4167 0.1250  plane waves:     682
 k-point 92 :  -0.2500 0.4167 0.1250  plane waves:     685
 k-point 93 :  -0.1667 0.4167 0.1250  plane waves:     678
 k-point 94 :  -0.0833 0.4167 0.1250  plane waves:     678
 k-point 95 :   0.5000 0.5000 0.1250  plane waves:     678
 k-point 96 :  -0.4167 0.5000 0.1250  plane waves:     680
 k-point 97 :  -0.3333 0.5000 0.1250  plane waves:     683
 k-point 98 :  -0.2500 0.5000 0.1250  plane waves:     685
 k-point 99 :  -0.1667 0.5000 0.1250  plane waves:     680
 k-point ** :  -0.0833 0.5000 0.1250  plane waves:     678
 k-point ** :  -0.4167-0.4167 0.1250  plane waves:     678
 k-point ** :  -0.3333-0.4167 0.1250  plane waves:     677
 k-point ** :  -0.2500-0.4167 0.1250  plane waves:     676
 k-point ** :  -0.1667-0.4167 0.1250  plane waves:     675
 k-point ** :  -0.0833-0.4167 0.1250  plane waves:     676
 k-point ** :  -0.3333-0.3333 0.1250  plane waves:     682
 k-point ** :  -0.2500-0.3333 0.1250  plane waves:     675
 k-point ** :  -0.1667-0.3333 0.1250  plane waves:     673
 k-point ** :  -0.0833-0.3333 0.1250  plane waves:     673
 k-point ** :  -0.2500-0.2500 0.1250  plane waves:     679
 k-point ** :  -0.1667-0.2500 0.1250  plane waves:     674
 k-point ** :  -0.0833-0.2500 0.1250  plane waves:     669
 k-point ** :  -0.1667-0.1667 0.1250  plane waves:     670
 k-point ** :  -0.0833-0.1667 0.1250  plane waves:     676
 k-point ** :  -0.0833-0.0833 0.1250  plane waves:     672
 k-point ** :   0.1667 0.0833 0.2500  plane waves:     675
 k-point ** :   0.3333 0.0833 0.2500  plane waves:     674
 k-point ** :   0.4167 0.0833 0.2500  plane waves:     675
 k-point ** :   0.5000 0.0833 0.2500  plane waves:     679
 k-point ** :  -0.4167 0.0833 0.2500  plane waves:     679
 k-point ** :  -0.3333 0.0833 0.2500  plane waves:     681
 k-point ** :  -0.2500 0.0833 0.2500  plane waves:     677
 k-point ** :  -0.1667 0.0833 0.2500  plane waves:     667
 k-point ** :  -0.0833 0.0833 0.2500  plane waves:     670
 k-point ** :   0.4167 0.3333 0.2500  plane waves:     674
 k-point ** :  -0.4167 0.3333 0.2500  plane waves:     685
 k-point ** :  -0.3333 0.3333 0.2500  plane waves:     679
 k-point ** :  -0.2500 0.3333 0.2500  plane waves:     678
 k-point ** :  -0.1667 0.3333 0.2500  plane waves:     673
 k-point ** :  -0.0833 0.3333 0.2500  plane waves:     673
 k-point ** :  -0.4167 0.4167 0.2500  plane waves:     676
 k-point ** :  -0.3333 0.4167 0.2500  plane waves:     686
 k-point ** :  -0.2500 0.4167 0.2500  plane waves:     683
 k-point ** :  -0.1667 0.4167 0.2500  plane waves:     676
 k-point ** :  -0.2500 0.5000 0.2500  plane waves:     684
 k-point ** :  -0.3333-0.4167 0.2500  plane waves:     684
 k-point ** :   0.0000 0.0000 0.3750  plane waves:     670
 k-point ** :   0.0833 0.0000 0.3750  plane waves:     671
 k-point ** :   0.1667-0.0000 0.3750  plane waves:     672
 k-point ** :   0.3333 0.0000 0.3750  plane waves:     680
 k-point ** :   0.4167-0.0000 0.3750  plane waves:     674
 k-point ** :  -0.4167 0.0000 0.3750  plane waves:     682
 k-point ** :  -0.3333-0.0000 0.3750  plane waves:     684
 k-point ** :  -0.2500 0.0000 0.3750  plane waves:     680
 k-point ** :  -0.1667-0.0000 0.3750  plane waves:     675
 k-point ** :  -0.0833-0.0000 0.3750  plane waves:     673
 k-point ** :   0.0833 0.0833 0.3750  plane waves:     670
 k-point ** :   0.1667 0.0833 0.3750  plane waves:     670
 k-point ** :   0.3333 0.0833 0.3750  plane waves:     674
 k-point ** :   0.4167 0.0833 0.3750  plane waves:     676
 k-point ** :  -0.4167 0.0833 0.3750  plane waves:     681
 k-point ** :  -0.3333 0.0833 0.3750  plane waves:     681
 k-point ** :  -0.2500 0.0833 0.3750  plane waves:     683
 k-point ** :  -0.1667 0.0833 0.3750  plane waves:     678
 k-point ** :  -0.0833 0.0833 0.3750  plane waves:     672
 k-point ** :   0.1667 0.1667 0.3750  plane waves:     668
 k-point ** :   0.3333 0.1667 0.3750  plane waves:     677
 k-point ** :   0.4167 0.1667 0.3750  plane waves:     677
 k-point ** :  -0.4167 0.1667 0.3750  plane waves:     676
[...]
 k-point ** :  -0.3333-0.3333 0.3750  plane waves:     681
 k-point ** :  -0.1667-0.3333 0.3750  plane waves:     682
 k-point ** :  -0.0833-0.3333 0.3750  plane waves:     683
 k-point ** :  -0.1667-0.2500 0.3750  plane waves:     679
 k-point ** :  -0.1667-0.1667 0.3750  plane waves:     679
 k-point ** :  -0.0833-0.1667 0.3750  plane waves:     677
 k-point ** :  -0.0833-0.0833 0.3750  plane waves:     673
 k-point ** :   0.1667 0.0833 0.5000  plane waves:     675
 k-point ** :   0.4167 0.0833 0.5000  plane waves:     677
 k-point ** :  -0.4167 0.0833 0.5000  plane waves:     674
 k-point ** :  -0.3333 0.0833 0.5000  plane waves:     681
 k-point ** :  -0.0833 0.0833 0.5000  plane waves:     674
 k-point ** :   0.3333 0.1667 0.5000  plane waves:     670
 k-point ** :  -0.3333 0.1667 0.5000  plane waves:     682
 k-point ** :  -0.1667 0.1667 0.5000  plane waves:     682

 maximum and minimum number of plane-waves per node :       239      209

 maximum number of plane-waves:       692
 maximum index in each direction:
   IXMAX=    6   IYMAX=    6   IZMAX=    6
   IXMIN=   -6   IYMIN=   -6   IZMIN=   -6

 WARNING: aliasing errors must be expected set NGX to  26 to avoid them
 WARNING: aliasing errors must be expected set NGY to  26 to avoid them
 WARNING: aliasing errors must be expected set NGZ to  26 to avoid them
 aliasing errors are usually negligible using standard VASP settings
 and one can safely disregard these warnings

 parallel 3D FFT for wavefunctions:
    minimum data exchange during FFTs selected (reduces bandwidth)
 parallel 3D FFT for charge:
    minimum data exchange during FFTs selected (reduces bandwidth)

 Broyden mixing: mesh for mixing (old mesh)
   NGX = 13   NGY = 13   NGZ = 13
  (NGX  = 48   NGY  = 48   NGZ  = 48)
  gives a total of   2197 points

 initial charge density was supplied:
 charge density of overlapping atoms calculated
 number of electron       8.0000000 magnetization
 keeping initial charge density in first step

 Maximum index for augmentation-charges         2063 (set IRDMAX)

 First call to EWALD:  gamma=   0.751
 Maximum number of real-space cells 3x 3x 3
 Maximum number of reciprocal cells 3x 3x 3

 FEWALD executed in parallel

----------------------------------------- Iteration    1(   1)  ---------------------------------------

 BZINTS: Fermi energy: 15.621799;  8.000000 electrons
         Band energy:  15.510965;  BLOECHL correction: -0.264446

 eigenvalue-minimisations  :  3120
 total energy-change (2. order) : 0.7836427E+01  (-0.6212379E+03)
 number of electron       8.0000000 magnetization
 augmentation part        8.0000000 magnetization

 Free energy of the ion-electron system (eV)
  alpha Z        PSCENC =        24.74761556
  Ewald energy   TEWEN  =      -331.07565685
  -Hartree energ DENC   =       -21.04812646
  -exchange      EXHF   =         0.00000000
  -V(xc)+E(xc)   XCENC  =        27.69374173
  PAW double counting   =        75.66288619      -77.96384553
  entropy T*S    EENTRO =         0.00000000
  eigenvalues    EBANDS =        15.51096503
  atomic energy  EATOM  =       294.30884690
  free energy    TOTEN  =         7.83642658 eV

  energy without entropy =        7.83642658  energy(sigma->0) =        7.83642658

[...]

 eigenvalue-minimisations  :  4904
 total energy-change (2. order) :-0.2589459E+02  (-0.2548125E+02)
 number of electron       8.0000000 magnetization
 augmentation part        8.0000000 magnetization

[...]

 Broyden mixing:
  rms(total) = 0.39711E+00    rms(broyden)= 0.39710E+00
  rms(prec ) = 0.14601E+01
  weight for this iteration     100.00

[...]

 eigenvalues of (default mixing * dielectric matrix)
  average eigenvalue GAMMA=   2.2191
  2.2191

[...]

 eigenvalue-minimisations  :  3152
 total energy-change (2. order) : 0.3071477E-07  (-0.6641344E-09)
 number of electron       8.0000000 magnetization
 augmentation part        0.1629635 magnetization

 Broyden mixing:
  rms(total) = 0.60968E-05    rms(broyden)= 0.60968E-05
  rms(prec ) = 0.19825E-04
  weight for this iteration     100.00

 eigenvalues of (default mixing * dielectric matrix)
  average eigenvalue GAMMA=   1.8815
  2.9470  2.6542  2.5111  2.0310  0.9587  1.0343  1.0343

[...]

----------------------------------------- Iteration    1(  13)  ---------------------------------------

 BZINTS: Fermi energy:  7.798380;  8.000000 electrons
         Band energy:  -3.217371;  BLOECHL correction:  0.000000

 eigenvalue-minimisations  :  1552
 total energy-change (2. order) :-0.2151069E-08  (-0.2169703E-10)
 number of electron       8.0000000 magnetization
 augmentation part        0.1629635 magnetization

 Free energy of the ion-electron system (eV)
  alpha Z        PSCENC =        24.74761556
  Ewald energy   TEWEN  =      -331.07565685
  -Hartree energ DENC   =       -28.59710387
  -exchange      EXHF   =         0.00000000
  -V(xc)+E(xc)   XCENC  =        28.39574293
  PAW double counting   =       113.88676339     -116.34691489
  entropy T*S    EENTRO =         0.00000000
  eigenvalues    EBANDS =        -3.21737111
  atomic energy  EATOM  =       294.30884690
  free energy    TOTEN  =       -17.89807793 eV

  energy without entropy =      -17.89807793  energy(sigma->0) =      -17.89807793

 average (electrostatic) potential at core
  the test charge radii are     0.6991
  (the norm of the test charge is              1.0000)
       1 -47.4653       2 -47.4653

 E-fermi :   7.7984     XC(G=0): -12.4894     alpha+bet :-15.2455

 k-point     1 :       0.0000    0.0000    0.0000
  band No.  band energies     occupation
      1     -11.8638      2.00000
      2       7.7097      2.00000
      3       7.7097      2.00000
      4       7.7097      2.00000
      5      12.8908      0.00000
      6      12.8908      0.00000
      7      12.8908      0.00000
      8      17.7910      0.00000

[...]

 k-point   194 :      -0.1667    0.1667    0.5000
  band No.  band energies     occupation
      1      -5.2681      2.00000
      2      -2.8635      2.00000
      3       0.7738      2.00000
      4       2.6313      2.00000
      5      15.9471      0.00000
      6      16.4408      0.00000
      7      19.6080      0.00000
      8      19.9470      0.00000

 soft charge-density along one line, spin component           1
         0         1         2         3         4         5         6         7         8         9
 total charge-density along one line

------------------------ aborting loop because EDIFF is reached ----------------------------------------

         DFTD3 V3.0 Rev 1
 IVDW         = 12
 DF pbe
 parameters
 VDW_S6       =    1.0000
 VDW_S8       =    0.7875
 VDW_A1       =    0.4289
 VDW_A2       =    4.4407
 k1-k3        =   16.0000    1.3333   -4.0000
 VDW_RADIUS   =   50.2022 A
 VDW_CNRADIUS =   21.1671 A
 Edisp (eV)   -0.33012

 E6    (eV) :    -0.2348
 E8    (eV) :    -0.0954
 % E8        : 28.89

  FORCE on cell =-STRESS in cart. coord.  units (eV):
  Direction    XX          YY          ZZ          XY          YZ          ZX
  Alpha Z    24.74762    24.74762    24.74762
  Ewald    -110.35860  -110.35860  -110.35861     0.00000     0.00000     0.00000
  Hartree     9.53237     9.53237     9.53237     0.00000     0.00000     0.00000
  E(xc)     -28.94839   -28.94839   -28.94839     0.00000     0.00000     0.00000
  Local     -14.02962   -14.02962   -14.02961    -0.00000    -0.00000    -0.00000
  n-local    -5.24148    -5.65014    -5.65620    -0.37035     0.00645    -0.14573
  augment    -0.58338    -0.58338    -0.58338     0.00000     0.00000     0.00000
  Kinetic   118.96993   122.52649   122.15845     2.49071     0.62538     1.12210
  Fock        0.00000     0.00000     0.00000     0.00000     0.00000     0.00000
  vdW        -0.32256    -0.32256    -0.32256    -0.00000    -0.00000    -0.00000
  Total      -4.26022    -4.26022    -4.26022     0.00000     0.00000     0.00000
  in kB    -518.27963  -518.27963  -518.27963     0.00000     0.00000     0.00000

 VOLUME and BASIS-vectors are now :
  energy-cutoff  :      800.00
  volume of cell :       13.17
      direct lattice vectors                 reciprocal lattice vectors
     2.650723983  0.000000000  0.000000000     0.377255424 -0.217808521 -0.154013882
     1.325361992  2.295594308  0.000000000     0.000000000  0.435617041 -0.154013882
     1.325361992  0.765198103  2.164307069     0.000000000  0.000000000  0.462041646

  length of vectors
     2.650723983  2.650723983  2.650723983     0.462041646  0.462041646  0.462041646

 FORCES acting on ions
    electron-ion (+dipol)            ewald-force                    non-local-force                 convergence-correction
   -.414E-05 -.239E-05 -.255E-05   -.146E-05 -.843E-06 -.237E-05   0.139E-16 0.399E-16 0.000E+00   -.285E-10 -.164E-10 -.127E-10
   0.634E-06 0.366E-06 0.543E-05   0.146E-05 0.843E-06 0.237E-05   0.694E-17 -.451E-16 0.000E+00   0.229E-10 0.132E-10 0.172E-10
   -.351E-05 -.203E-05 0.288E-05   -.555E-15 0.142E-15 -.872E-16   0.208E-16 -.520E-17 0.000E+00   -.552E-11 -.319E-11 0.450E-11

 POSITION                                       TOTAL-FORCE (eV/Angst)
      0.00000      0.00000      0.00000        -0.000000     -0.000000      0.000000
      1.32536      0.76520      0.54108         0.000000      0.000000     -0.000000
    total drift:                               -0.000004     -0.000002      0.000003

  FREE ENERGIE OF THE ION-ELECTRON SYSTEM (eV)
  free  energy   TOTEN  =       -18.22819695 eV

  energy  without entropy=      -18.22819695  energy(sigma->0) =      -18.22819695

 reached required accuracy - stopping structural energy minimisation
 BZINTS: Fermi energy:  7.798380;  8.000000 electrons
         Band energy:  -3.217371;  BLOECHL correction:  0.000000