 vasp.5.3.5 31Mar14 (build Nov 04 2014 22:34:45) complex

 executed on         atom-AMD-MKL date 2016.10.13  21:00:45

 INCAR:
 POTCAR:   PAW_PBE C 08Apr2002
 POTCAR:   PAW_PBE C 08Apr2002
   VRHFIN =C: s2p2

   TITEL  = PAW_PBE C 08Apr2002
   POMASS =   12.011; ZVAL   =    4.000    mass and valenz
   ENMAX  =  400.000; ENMIN  =  300.000 eV
   QCUT   =   -5.516; QGAM   =   11.032    optimization parameters

   Description
     l     E      TYP  RCUT    TYP  RCUT
     0   .000     23  1.200
     0   .000     23  1.200
     1   .000     23  1.500
     1  2.500     23  1.500
     2   .000      7  1.500

 PAW_PBE C 08Apr2002                    :

 POSCAR: CIF file
  positions in direct lattice
  velocities in cartesian coordinates
 exchange correlation table for  LEXCH =        8
   RHO(1)=    0.500       N(1)  =     2000
   RHO(2)=  100.500       N(2)  =     4000

 ion  position               nearest neighbor table
   1  0.999  0.001  0.250-   3 1.42   3 1.42   3 1.42
   2  0.001  0.999  0.750-   4 1.42   4 1.42   4 1.42
   3  0.333  0.667  0.250-   1 1.42   1 1.42   1 1.42
   4  0.667  0.333  0.750-   2 1.42   2 1.42   2 1.42

  LATTYP: Found a base centered orthorhombic cell.
 ALAT       =     2.4647750986
 B/A-ratio  =     1.7336081796
 C/A-ratio  =     2.8520475462

  Lattice vectors:

 A1 = (   2.4664372490,  -0.0009596430,   0.0000000000)
 A2 = (  -1.2340496996,   2.1355174929,   0.0000000000)
 A3 = (   0.0000000000,   0.0000000000,   7.0296557718)

Analysis of symmetry for initial positions (statically):
 Subroutine PRICEL returns:
 Original cell was already a primitive cell.

 Routine SETGRP: Setting up the symmetry group for a
 base centered orthorhombic supercell.

 Subroutine GETGRP returns: Found  8 space group operations
 (whereof  4 operations were pure point group operations)
 out of a pool of  8 trial point group operations.

The static configuration has the point symmetry C_2h.
 The point group associated with its full space group is D_2h.

Analysis of symmetry for dynamics (positions and initial velocities):
 Subroutine PRICEL returns:
 Original cell was already a primitive cell.

 Routine SETGRP: Setting up the symmetry group for a
 base centered orthorhombic supercell.

 Subroutine GETGRP returns: Found  8 space group operations
 (whereof  4 operations were pure point group operations)
 out of a pool of  8 trial point group operations.

The dynamic configuration has the point symmetry C_2h.
 The point group associated with its full space group is D_2h.

 KPOINTS: B4C B11C-CBC

Automatic generation of k-mesh.
Space group operators:
 irot       det(A)        alpha          n_x          n_y          n_z        tau_x        tau_y        tau_z
    1     1.000000     0.000000     1.000000     0.000000     0.000000     0.000000     0.000000     0.000000
    2    -1.000000     0.000000     1.000000     0.000000     0.000000     0.000000     0.000000     0.000000
    3     1.000000   180.000000    -0.500000    -0.866025     0.000000     0.000000     0.000000     0.000000
    4    -1.000000   180.000000    -0.500000    -0.866025     0.000000     0.000000     0.000000     0.000000
    5     1.000000   179.999999     0.000000     0.000000     1.000000     0.000000     0.000000     0.500000
    6    -1.000000   179.999999     0.000000     0.000000     1.000000     0.000000     0.000000     0.500000
    7     1.000000   180.000000     0.866025    -0.500000     0.000000     0.000000     0.000000     0.500000
    8    -1.000000   180.000000     0.866025    -0.500000     0.000000    -0.000000     0.000000     0.500000

 Subroutine IBZKPT returns following result:

 Found    215 irreducible k-points:

 Following reciprocal coordinates:
            Coordinates               Weight
  0.000000  0.000000  0.000000      1.000000
  0.083333 -0.000000  0.000000      4.000000
  0.166667 -0.000000  0.000000      4.000000
  0.250000  0.000000  0.000000      4.000000
  0.333333 -0.000000  0.000000      4.000000
  0.416667  0.000000  0.000000      4.000000
  0.500000  0.000000  0.000000      2.000000
  0.083333  0.083333  0.000000      2.000000
  0.166667  0.083333  0.000000      4.000000
  0.250000  0.083333  0.000000      4.000000
  0.333333  0.083333  0.000000      4.000000
  0.416667  0.083333  0.000000      4.000000
  0.500000  0.083333  0.000000      4.000000
 -0.416667  0.083333  0.000000      4.000000
 -0.333333  0.083333  0.000000      4.000000
 -0.250000  0.083333  0.000000      4.000000
 -0.166667  0.083333  0.000000      4.000000
 -0.083333  0.083333  0.000000      2.000000
  0.166667  0.166667  0.000000      2.000000
  0.250000  0.166667  0.000000      4.000000
  0.333333  0.166667  0.000000      4.000000
  0.416667  0.166667  0.000000      4.000000
  0.500000  0.166667  0.000000      4.000000
 -0.416667  0.166667  0.000000      4.000000
 -0.333333  0.166667  0.000000      4.000000
 -0.250000  0.166667  0.000000      4.000000
 -0.166667  0.166667  0.000000      2.000000
  0.250000  0.250000  0.000000      2.000000
  0.333333  0.250000  0.000000      4.000000
  0.416667  0.250000  0.000000      4.000000
  0.500000  0.250000  0.000000      4.000000
 -0.416667  0.250000  0.000000      4.000000
 -0.333333  0.250000  0.000000      4.000000
 -0.250000  0.250000  0.000000      2.000000
  0.333333  0.333333  0.000000      2.000000
  0.416667  0.333333  0.000000      4.000000
  0.500000  0.333333  0.000000      4.000000
 -0.416667  0.333333  0.000000      4.000000
 -0.333333  0.333333  0.000000      2.000000
  0.416667  0.416667  0.000000      2.000000
  0.500000  0.416667  0.000000      4.000000
 -0.416667  0.416667  0.000000      2.000000
  0.500000  0.500000  0.000000      1.000000
  0.000000  0.000000  0.125000      2.000000
  0.083333 -0.000000  0.125000      8.000000
  0.166667 -0.000000  0.125000      8.000000
  0.250000  0.000000  0.125000      8.000000
  0.333333 -0.000000  0.125000      8.000000
  0.416667  0.000000  0.125000      8.000000
  0.500000  0.000000  0.125000      4.000000
  0.083333  0.083333  0.125000      4.000000
  0.166667  0.083333  0.125000      8.000000
  0.250000  0.083333  0.125000      8.000000
  0.333333  0.083333  0.125000      8.000000
  0.416667  0.083333  0.125000      8.000000
  0.500000  0.083333  0.125000      8.000000
 -0.416667  0.083333  0.125000      8.000000
 -0.333333  0.083333  0.125000      8.000000
 -0.250000  0.083333  0.125000      8.000000
 -0.166667  0.083333  0.125000      8.000000
[...]
  0.333333  0.250000  0.500000      4.000000
  0.416667  0.250000  0.500000      4.000000
  0.500000  0.250000  0.500000      4.000000
 -0.416667  0.250000  0.500000      4.000000
 -0.333333  0.250000  0.500000      4.000000
 -0.250000  0.250000  0.500000      2.000000
  0.333333  0.333333  0.500000      2.000000
  0.416667  0.333333  0.500000      4.000000
  0.500000  0.333333  0.500000      4.000000
 -0.416667  0.333333  0.500000      4.000000
 -0.333333  0.333333  0.500000      2.000000
  0.416667  0.416667  0.500000      2.000000
  0.500000  0.416667  0.500000      4.000000
 -0.416667  0.416667  0.500000      2.000000
  0.500000  0.500000  0.500000      1.000000

 Following cartesian coordinates:
            Coordinates               Weight
  0.000000  0.000000  0.000000      1.000000
  0.033795  0.019529  0.000000      4.000000
  0.067589  0.039058  0.000000      4.000000
  0.101384  0.058586  0.000000      4.000000
  0.135178  0.078115  0.000000      4.000000
  0.168973  0.097644  0.000000      4.000000
  0.202767  0.117173  0.000000      2.000000
  0.033810  0.058560  0.000000      2.000000
  0.067604  0.078089  0.000000      4.000000
  0.101399  0.097618  0.000000      4.000000
  0.135193  0.117147  0.000000      4.000000
  0.168988  0.136675  0.000000      4.000000
  0.202782  0.156204  0.000000      4.000000
 -0.168957 -0.058613  0.000000      4.000000
 -0.135163 -0.039084  0.000000      4.000000
 -0.101368 -0.019555  0.000000      4.000000
 -0.067574 -0.000026  0.000000      4.000000
 -0.033779  0.019503  0.000000      2.000000
  0.067619  0.117120  0.000000      2.000000
  0.101414  0.136649  0.000000      4.000000
  0.135208  0.156178  0.000000      4.000000
  0.169003  0.175707  0.000000      4.000000
  0.202798  0.195236  0.000000      4.000000
 -0.168942 -0.019581  0.000000      4.000000
 -0.135148 -0.000053  0.000000      4.000000
 -0.101353  0.019476  0.000000      4.000000
 -0.067559  0.039005  0.000000      2.000000
  0.101429  0.175680  0.000000      2.000000
  0.135224  0.195209  0.000000      4.000000
  0.169018  0.214738  0.000000      4.000000
  0.202813  0.234267  0.000000      4.000000
 -0.168927  0.019450  0.000000      4.000000
 -0.135133  0.038979  0.000000      4.000000
 -0.101338  0.058508  0.000000      2.000000
  0.135239  0.234241  0.000000      2.000000
  0.169033  0.253769  0.000000      4.000000
  0.202828  0.273298  0.000000      4.000000
 -0.168912  0.058481  0.000000      4.000000
 -0.135117  0.078010  0.000000      2.000000
  0.169049  0.292801  0.000000      2.000000
  0.202843  0.312329  0.000000      4.000000
 -0.168897  0.097513  0.000000      2.000000
  0.202858  0.351361  0.000000      1.000000
  0.000000  0.000000  0.017782      2.000000
  0.033795  0.019529  0.017782      8.000000
  0.067589  0.039058  0.017782      8.000000
  0.101384  0.058586  0.017782      8.000000
  0.135178  0.078115  0.017782      8.000000
  0.168973  0.097644  0.017782      8.000000
  0.202767  0.117173  0.017782      4.000000
  0.033810  0.058560  0.017782      4.000000
  0.067604  0.078089  0.017782      8.000000
  0.101399  0.097618  0.017782      8.000000
  0.135193  0.117147  0.017782      8.000000
  0.168988  0.136675  0.017782      8.000000
  0.202782  0.156204  0.017782      8.000000
 -0.168957 -0.058613  0.017782      8.000000
 -0.135163 -0.039084  0.017782      8.000000
 -0.101368 -0.019555  0.017782      8.000000
 -0.067574 -0.000026  0.017782      8.000000
[...]
  0.135224  0.195209  0.071127      4.000000
  0.169018  0.214738  0.071127      4.000000
  0.202813  0.234267  0.071127      4.000000
 -0.168927  0.019450  0.071127      4.000000
 -0.135133  0.038979  0.071127      4.000000
 -0.101338  0.058508  0.071127      2.000000
  0.135239  0.234241  0.071127      2.000000
  0.169033  0.253769  0.071127      4.000000
  0.202828  0.273298  0.071127      4.000000
 -0.168912  0.058481  0.071127      4.000000
 -0.135117  0.078010  0.071127      2.000000
  0.169049  0.292801  0.071127      2.000000
  0.202843  0.312329  0.071127      4.000000
 -0.168897  0.097513  0.071127      2.000000
  0.202858  0.351361  0.071127      1.000000

 TETIRR: Found   1728 inequivalent tetrahedra from     6912

 I would recommend the setting:
   dimension x,y,z NGX =    20 NGY =   20 NGZ =   56
 SYSTEM =  graphite
 POSCAR =  CIF file

 Startparameter for this run:
   NWRITE =      2    write-flag & timer
   PREC   = accura    normal or accurate (medium, high low for compatibility)
   ISTART =      0    job   : 0-new  1-cont  2-samecut
   ICHARG =      2    charge: 1-file 2-atom 10-const
   ISPIN  =      1    spin polarized calculation?
   LNONCOLLINEAR =      F non collinear calculations
   LSORBIT =      F    spin-orbit coupling
[...]
 k-point 33 :  -0.3333 0.2500 0.0000  plane waves:    1225
 k-point 34 :  -0.2500 0.2500 0.0000  plane waves:    1239
 k-point 35 :   0.3333 0.3333 0.0000  plane waves:    1263
 k-point 36 :   0.4167 0.3333 0.0000  plane waves:    1255
 k-point 37 :   0.5000 0.3333 0.0000  plane waves:    1245
 k-point 38 :  -0.4167 0.3333 0.0000  plane waves:    1233
 k-point 39 :  -0.3333 0.3333 0.0000  plane waves:    1232
 k-point 40 :   0.4167 0.4167 0.0000  plane waves:    1253
 k-point 41 :   0.5000 0.4167 0.0000  plane waves:    1239
 k-point 42 :  -0.4167 0.4167 0.0000  plane waves:    1232
 k-point 43 :   0.5000 0.5000 0.0000  plane waves:    1228
 k-point 44 :   0.0000 0.0000 0.1250  plane waves:    1212
 k-point 45 :   0.0833-0.0000 0.1250  plane waves:    1211
 k-point 46 :   0.1667-0.0000 0.1250  plane waves:    1225
 k-point 47 :   0.2500 0.0000 0.1250  plane waves:    1224
 k-point 48 :   0.3333-0.0000 0.1250  plane waves:    1228
 k-point 49 :   0.4167 0.0000 0.1250  plane waves:    1236
 k-point 50 :   0.5000 0.0000 0.1250  plane waves:    1228
 k-point 51 :   0.0833 0.0833 0.1250  plane waves:    1217
 k-point 52 :   0.1667 0.0833 0.1250  plane waves:    1228
 k-point 53 :   0.2500 0.0833 0.1250  plane waves:    1227
 k-point 54 :   0.3333 0.0833 0.1250  plane waves:    1236
 k-point 55 :   0.4167 0.0833 0.1250  plane waves:    1236
 k-point 56 :   0.5000 0.0833 0.1250  plane waves:    1236
 k-point 57 :  -0.4167 0.0833 0.1250  plane waves:    1236
 k-point 58 :  -0.3333 0.0833 0.1250  plane waves:    1226
 k-point 59 :  -0.2500 0.0833 0.1250  plane waves:    1228
 k-point 60 :  -0.1667 0.0833 0.1250  plane waves:    1217
[...]
 k-point 85 :  -0.4167 0.4167 0.1250  plane waves:    1237
 k-point 86 :   0.5000 0.5000 0.1250  plane waves:    1228
 k-point 87 :   0.0000 0.0000 0.2500  plane waves:    1216
 k-point 88 :   0.0833-0.0000 0.2500  plane waves:    1212
 k-point 89 :   0.1667-0.0000 0.2500  plane waves:    1224
 k-point 90 :   0.2500 0.0000 0.2500  plane waves:    1229
 k-point 91 :   0.3333-0.0000 0.2500  plane waves:    1237
 k-point 92 :   0.4167 0.0000 0.2500  plane waves:    1235
 k-point 93 :   0.5000 0.0000 0.2500  plane waves:    1228
 k-point 94 :   0.0833 0.0833 0.2500  plane waves:    1218
 k-point 95 :   0.1667 0.0833 0.2500  plane waves:    1229
 k-point 96 :   0.2500 0.0833 0.2500  plane waves:    1226
 k-point 97 :   0.3333 0.0833 0.2500  plane waves:    1240
 k-point 98 :   0.4167 0.0833 0.2500  plane waves:    1244
 k-point 99 :   0.5000 0.0833 0.2500  plane waves:    1242
 k-point ** :  -0.4167 0.0833 0.2500  plane waves:    1237
 k-point ** :  -0.3333 0.0833 0.2500  plane waves:    1226
 k-point ** :  -0.2500 0.0833 0.2500  plane waves:    1230
 k-point ** :  -0.1667 0.0833 0.2500  plane waves:    1217
 k-point ** :  -0.0833 0.0833 0.2500  plane waves:    1212
 k-point ** :   0.1667 0.1667 0.2500  plane waves:    1231
 k-point ** :   0.2500 0.1667 0.2500  plane waves:    1233
 k-point ** :   0.3333 0.1667 0.2500  plane waves:    1246
 k-point ** :   0.4167 0.1667 0.2500  plane waves:    1243
 k-point ** :   0.5000 0.1667 0.2500  plane waves:    1246
 k-point ** :  -0.4167 0.1667 0.2500  plane waves:    1233
 k-point ** :  -0.3333 0.1667 0.2500  plane waves:    1230
 k-point ** :  -0.2500 0.1667 0.2500  plane waves:    1231
 k-point ** :  -0.1667 0.1667 0.2500  plane waves:    1224
 k-point ** :   0.2500 0.2500 0.2500  plane waves:    1246
 k-point ** :   0.3333 0.2500 0.2500  plane waves:    1252
 k-point ** :   0.4167 0.2500 0.2500  plane waves:    1252
 k-point ** :   0.5000 0.2500 0.2500  plane waves:    1247
 k-point ** :  -0.4167 0.2500 0.2500  plane waves:    1234
 k-point ** :  -0.3333 0.2500 0.2500  plane waves:    1225
 k-point ** :  -0.2500 0.2500 0.2500  plane waves:    1230
 k-point ** :   0.3333 0.3333 0.2500  plane waves:    1263
 k-point ** :   0.4167 0.3333 0.2500  plane waves:    1253
 k-point ** :   0.5000 0.3333 0.2500  plane waves:    1245
 k-point ** :  -0.4167 0.3333 0.2500  plane waves:    1237
 k-point ** :  -0.3333 0.3333 0.2500  plane waves:    1237
 k-point ** :   0.4167 0.4167 0.2500  plane waves:    1244
 k-point ** :   0.5000 0.4167 0.2500  plane waves:    1243
 k-point ** :  -0.4167 0.4167 0.2500  plane waves:    1235
 k-point ** :   0.5000 0.5000 0.2500  plane waves:    1228
 k-point ** :   0.0000 0.0000 0.3750  plane waves:    1222
 k-point ** :   0.0833-0.0000 0.3750  plane waves:    1214
 k-point ** :   0.1667-0.0000 0.3750  plane waves:    1227
 k-point ** :   0.2500 0.0000 0.3750  plane waves:    1229
 k-point ** :   0.3333-0.0000 0.3750  plane waves:    1232
 k-point ** :   0.4167 0.0000 0.3750  plane waves:    1241
 k-point ** :   0.5000 0.0000 0.3750  plane waves:    1236
 k-point ** :   0.0833 0.0833 0.3750  plane waves:    1222
 k-point ** :   0.1667 0.0833 0.3750  plane waves:    1229
 k-point ** :   0.2500 0.0833 0.3750  plane waves:    1232
 k-point ** :   0.3333 0.0833 0.3750  plane waves:    1237
 k-point ** :   0.4167 0.0833 0.3750  plane waves:    1244
 k-point ** :   0.5000 0.0833 0.3750  plane waves:    1243
 k-point ** :  -0.4167 0.0833 0.3750  plane waves:    1238
 k-point ** :  -0.3333 0.0833 0.3750  plane waves:    1231
 k-point ** :  -0.2500 0.0833 0.3750  plane waves:    1229
 k-point ** :  -0.1667 0.0833 0.3750  plane waves:    1224
 k-point ** :  -0.0833 0.0833 0.3750  plane waves:    1213
 k-point ** :   0.1667 0.1667 0.3750  plane waves:    1234
 k-point ** :   0.2500 0.1667 0.3750  plane waves:    1239
 k-point ** :   0.3333 0.1667 0.3750  plane waves:    1240
 k-point ** :   0.4167 0.1667 0.3750  plane waves:    1242
 k-point ** :   0.5000 0.1667 0.3750  plane waves:    1240
 k-point ** :  -0.4167 0.1667 0.3750  plane waves:    1236
 k-point ** :  -0.3333 0.1667 0.3750  plane waves:    1235
 k-point ** :  -0.2500 0.1667 0.3750  plane waves:    1230
 k-point ** :  -0.1667 0.1667 0.3750  plane waves:    1227
 k-point ** :   0.2500 0.2500 0.3750  plane waves:    1246
 k-point ** :   0.3333 0.2500 0.3750  plane waves:    1250
 k-point ** :   0.4167 0.2500 0.3750  plane waves:    1250
[...]
 k-point ** :   0.3333 0.2500 0.5000  plane waves:    1252
 k-point ** :   0.4167 0.2500 0.5000  plane waves:    1252
 k-point ** :   0.5000 0.2500 0.5000  plane waves:    1246
 k-point ** :  -0.4167 0.2500 0.5000  plane waves:    1238
 k-point ** :  -0.3333 0.2500 0.5000  plane waves:    1230
 k-point ** :  -0.2500 0.2500 0.5000  plane waves:    1228
 k-point ** :   0.3333 0.3333 0.5000  plane waves:    1240
 k-point ** :   0.4167 0.3333 0.5000  plane waves:    1252
 k-point ** :   0.5000 0.3333 0.5000  plane waves:    1240
 k-point ** :  -0.4167 0.3333 0.5000  plane waves:    1236
 k-point ** :  -0.3333 0.3333 0.5000  plane waves:    1230
 k-point ** :   0.4167 0.4167 0.5000  plane waves:    1238
 k-point ** :   0.5000 0.4167 0.5000  plane waves:    1242
 k-point ** :  -0.4167 0.4167 0.5000  plane waves:    1246
 k-point ** :   0.5000 0.5000 0.5000  plane waves:    1244

 maximum and minimum number of plane-waves per node :       427      398

 maximum number of plane-waves:      1263
 maximum index in each direction:
   IXMAX=    5   IYMAX=    4   IZMAX=   14
   IXMIN=   -5   IYMIN=   -5   IZMIN=  -14

 WARNING: aliasing errors must be expected set NGX to  22 to avoid them
 NGY is ok and might be reduce to  20
 WARNING: aliasing errors must be expected set NGZ to  58 to avoid them
 aliasing errors are usually negligible using standard VASP settings
 and one can safely disregard these warnings

 parallel 3D FFT for wavefunctions:
    minimum data exchange during FFTs selected (reduces bandwidth)
 parallel 3D FFT for charge:
    minimum data exchange during FFTs selected (reduces bandwidth)

 Broyden mixing: mesh for mixing (old mesh)
   NGX =  9   NGY =  9   NGZ = 29
  (NGX  = 40   NGY  = 40   NGZ  =112)
  gives a total of   2349 points

 initial charge density was supplied:
 charge density of overlapping atoms calculated
 number of electron      16.0000000 magnetization
 keeping initial charge density in first step

 Maximum index for augmentation-charges         1305 (set IRDMAX)

 First call to EWALD:  gamma=   0.532
 Maximum number of real-space cells 4x 4x 2
 Maximum number of reciprocal cells 2x 2x 5

 FEWALD executed in parallel

----------------------------------------- Iteration    1(   1)  ---------------------------------------

 BZINTS: Fermi energy: 13.407431; 16.000000 electrons
         Band energy: -16.970497;  BLOECHL correction: -0.446128

 eigenvalue-minimisations  :  5176
 total energy-change (2. order) : 0.5819345E+02  (-0.8967588E+03)
 number of electron      16.0000000 magnetization
 augmentation part       16.0000000 magnetization

 Free energy of the ion-electron system (eV)
  alpha Z        PSCENC =        35.21780391
  Ewald energy   TEWEN  =      -431.40103199
  -Hartree energ DENC   =      -167.96788981
  -exchange      EXHF   =         0.00000000
  -V(xc)+E(xc)   XCENC  =        55.31583022
  PAW double counting   =       151.32577238     -155.92769107
  entropy T*S    EENTRO =         0.00000000
  eigenvalues    EBANDS =       -16.97049746
  atomic energy  EATOM  =       588.60115103
  free energy    TOTEN  =        58.19344722 eV

  energy without entropy =       58.19344722  energy(sigma->0) =       58.19344722

[...]

 BZINTS: Fermi energy:  3.132156; 16.000000 electrons
         Band energy:-110.035294;  BLOECHL correction: -0.000004

 eigenvalue-minimisations  :  7096
 total energy-change (2. order) :-0.9306480E+02  (-0.8528885E+02)
 number of electron      16.0000000 magnetization
 augmentation part       16.0000000 magnetization

[...]

 BZINTS: Fermi energy:  2.687716; 16.000000 electrons
         Band energy:-114.427112;  BLOECHL correction: -0.000012

[...]

 Broyden mixing:
  rms(total) = 0.78101E+00    rms(broyden)= 0.78092E+00
  rms(prec ) = 0.12253E+01
  weight for this iteration     100.00

[...]

 eigenvalues of (default mixing * dielectric matrix)
  average eigenvalue GAMMA=   2.0344
  2.0344

[...]

 eigenvalue-minimisations  :  6352
 total energy-change (2. order) :-0.1091367E-06  (-0.1983579E-07)
 number of electron      16.0000001 magnetization
 augmentation part        0.3834180 magnetization

 Broyden mixing:
  rms(total) = 0.13342E-04    rms(broyden)= 0.13328E-04
  rms(prec ) = 0.17219E-04
  weight for this iteration     100.00

 eigenvalues of (default mixing * dielectric matrix)
  average eigenvalue GAMMA=   1.8987
  3.1292  2.5661  2.2711  2.2711  1.9576  0.9771  1.0086  1.0086

[...]

----------------------------------------- Iteration    1(  14)  ---------------------------------------

 BZINTS: Fermi energy:  4.279021; 16.000000 electrons
         Band energy: -77.330013;  BLOECHL correction: -0.000042

 eigenvalue-minimisations  :  4492
 total energy-change (2. order) : 0.4789968E-08  (-0.1929743E-09)
 number of electron      16.0000001 magnetization
 augmentation part        0.3834180 magnetization

 Free energy of the ion-electron system (eV)
  alpha Z        PSCENC =        35.21780391
  Ewald energy   TEWEN  =      -431.40103199
  -Hartree energ DENC   =      -204.38151937
  -exchange      EXHF   =         0.00000000
  -V(xc)+E(xc)   XCENC  =        57.60343396
  PAW double counting   =       277.74335440     -282.90863825
  entropy T*S    EENTRO =         0.00000000
  eigenvalues    EBANDS =       -77.33001271
  atomic energy  EATOM  =       588.60115103
  free energy    TOTEN  =       -36.85545902 eV

  energy without entropy =      -36.85545902  energy(sigma->0) =      -36.85545902

 average (electrostatic) potential at core
  the test charge radii are     0.6991
  (the norm of the test charge is              1.0000)
       1 -51.1272       2 -51.1272       3 -51.1147       4 -51.1147

 E-fermi :   4.2790     XC(G=0):  -9.9831     alpha+bet :-10.8478

 k-point     1 :       0.0000    0.0000    0.0000
  band No.  band energies     occupation
      1     -15.3143      2.00000
      2     -15.1069      2.00000
      3      -4.0407      2.00000
      4      -2.5000      2.00000
      5       1.2650      2.00000
      6       1.2763      2.00000
      7       1.2817      2.00000
      8       1.2926      2.00000
      9       8.2318      0.00000
     10      12.6123      0.00000
     11      12.6158      0.00000
     12      12.6465      0.00000

[...]

 k-point   215 :       0.5000    0.5000    0.5000
  band No.  band energies     occupation
      1      -9.9761      2.00000
      2      -9.9761      2.00000
      3      -8.9269      2.00000
      4      -8.9269      2.00000
      5      -2.0871      2.00000
      6      -2.0871      2.00000
      7       1.9203      2.00000
      8       1.9203      2.00000
      9       5.9386      0.00000
     10       5.9386      0.00000
     11      11.7004      0.00000
     12      11.7004      0.00000

 soft charge-density along one line, spin component           1
         0         1         2         3         4         5         6         7         8         9
 total charge-density along one line

------------------------ aborting loop because EDIFF is reached ----------------------------------------

         DFTD3 V3.0 Rev 1
 IVDW         = 12
 DF pbe
 parameters
 VDW_S6       =    1.0000
 VDW_S8       =    0.7875
 VDW_A1       =    0.4289
 VDW_A2       =    4.4407
 k1-k3        =   16.0000    1.3333   -4.0000
 VDW_RADIUS   =   50.2022 A
 VDW_CNRADIUS =   21.1671 A
 Edisp (eV)   -0.59131

 E6    (eV) :    -0.4248
 E8    (eV) :    -0.1665
 % E8        : 28.16

  FORCE on cell =-STRESS in cart. coord.  units (eV):
  Direction    XX          YY          ZZ          XY          YZ          ZX
  Alpha Z    35.21780    35.21780    35.21780
  Ewald     106.50155   106.44254  -644.34562    -0.05110     0.00000    -0.00000
  Hartree   181.80667   181.81017  -159.23535     0.00303    -0.00000    -0.00000
  E(xc)     -58.41821   -58.41898   -60.62300    -0.00067     0.00000    -0.00000
  Local    -489.60227  -489.56401   568.47657     0.03313     0.00000     0.00000
  n-local   -14.43952   -13.69715   -12.82256    -0.23145     0.00868    -0.00617
  augment    -1.54670    -1.54657    -1.41741     0.00011    -0.00000     0.00000
  Kinetic   243.79552   236.66435   275.12172     2.14293    -0.12215     0.07928
  Fock        0.00000     0.00000     0.00000     0.00000     0.00000     0.00000
  vdW        -0.10005    -0.09889    -0.71171     0.00100     0.00000    -0.00000
  Total      -0.00870     0.03275    -0.33955     0.03590     0.00000    -0.00000
  in kB      -0.37662     1.41750   -14.69634     1.55375     0.00000    -0.00000

 VOLUME and BASIS-vectors are now :
  energy-cutoff  :      600.00
  volume of cell :       37.02
      direct lattice vectors                 reciprocal lattice vectors
     2.466437249 -0.000959643  0.000000000     0.405534294  0.234345762  0.000000000
    -1.234049700  2.135517493  0.000000000     0.000182236  0.468375882  0.000000000
     0.000000000  0.000000000  7.029655772     0.000000000  0.000000000  0.142254476

  length of vectors
     2.466437436  2.466437436  7.029655772     0.468375917  0.468375917  0.142254476

 FORCES acting on ions
    electron-ion (+dipol)            ewald-force                    non-local-force                 convergence-correction
   -.122E+00 0.706E-01 0.100E-11   0.108E+00 -.622E-01 -.187E-13   -.749E-02 0.432E-02 0.000E+00   -.275E-05 0.159E-05 -.142E-12
   0.122E+00 -.706E-01 0.678E-13   -.108E+00 0.622E-01 0.187E-13   0.749E-02 -.432E-02 0.000E+00   0.275E-05 -.159E-05 0.111E-12
   0.118E+00 -.681E-01 0.868E-12   -.107E+00 0.620E-01 -.187E-13   0.543E-02 -.313E-02 0.434E-18   0.263E-05 -.152E-05 -.142E-12
   -.118E+00 0.681E-01 -.101E-11   0.107E+00 -.620E-01 0.187E-13   -.543E-02 0.313E-02 -.434E-18   -.263E-05 0.152E-05 0.111E-12
   -.677E-05 -.117E-04 0.926E-12   -.640E-14 0.821E-14 0.000E+00   -.555E-16 0.555E-16 0.000E+00   -.996E-11 -.172E-10 -.614E-13

 POSITION                                       TOTAL-FORCE (eV/Angst)
      2.46402      0.00044      1.75741        -0.022198      0.012816     -0.000000
     -1.23163      2.13412      5.27224         0.022198     -0.012816      0.000000
     -0.00332      1.42496      1.75741         0.015992     -0.009233     -0.000000
      1.23571      0.70960      5.27224        -0.015992      0.009233      0.000000
    total drift:                               -0.000007     -0.000012      0.000000

  FREE ENERGIE OF THE ION-ELECTRON SYSTEM (eV)
  free  energy   TOTEN  =       -37.44676835 eV

  energy  without entropy=      -37.44676835  energy(sigma->0) =      -37.44676835

 reached required accuracy - stopping structural energy minimisation
 BZINTS: Fermi energy:  4.279021; 16.000000 electrons
         Band energy: -77.330013;  BLOECHL correction: -0.000042