 vasp.5.3.5 31Mar14 (build Nov 02 2014 15:17:37) complex

 executed on        ion-Intel-MKL date 2017.02.15  21:52:42

 INCAR:
 POTCAR:   PAW_PBE C 08Apr2002
 POTCAR:   PAW_PBE C 08Apr2002
   VRHFIN =C: s2p2

   TITEL  = PAW_PBE C 08Apr2002
   POMASS =   12.011; ZVAL   =    4.000    mass and valenz
   ENMAX  =  400.000; ENMIN  =  300.000 eV
   QCUT   =   -5.516; QGAM   =   11.032    optimization parameters

   Description
     l     E      TYP  RCUT    TYP  RCUT
     0   .000     23  1.200
     0   .000     23  1.200
     1   .000     23  1.500
     1  2.500     23  1.500
     2   .000      7  1.500

 PAW_PBE C 08Apr2002                    :

 POSCAR: C
  positions in direct lattice
 exchange correlation table for  LEXCH =        8
   RHO(1)=    0.500       N(1)  =     2000
   RHO(2)=  100.500       N(2)  =     4000

 ion  position               nearest neighbor table
   1  0.002  0.000  0.000-   9 1.60  11 1.61  13 1.61  10 1.62
   2  0.500  0.000  0.000-  10 1.61  12 1.61   9 1.61  14 1.61
   3  0.000  0.500  0.000-  11 1.61   9 1.61  12 1.61  15 1.61
   4  0.500  0.500  0.000-  12 1.61  10 1.61  11 1.61  16 1.61
   5  0.000  0.000  0.500-  13 1.61  15 1.61  14 1.61   9 1.61
   6  0.500  0.000  0.500-  14 1.61  16 1.61  13 1.61  10 1.61
   7  0.000  0.500  0.500-  15 1.61  13 1.61  16 1.61  11 1.61
   8  0.500  0.500  0.500-  16 1.61  14 1.61  15 1.61  12 1.61
   9  0.125  0.125  0.125-   1 1.60   3 1.61   2 1.61   5 1.61
  10  0.625  0.125  0.125-   2 1.61   4 1.61   6 1.61   1 1.62
  11  0.125  0.625  0.125-   3 1.61   4 1.61   7 1.61   1 1.61
  12  0.625  0.625  0.125-   4 1.61   2 1.61   3 1.61   8 1.61
  13  0.125  0.125  0.625-   5 1.61   7 1.61   6 1.61   1 1.61
  14  0.625  0.125  0.625-   6 1.61   8 1.61   5 1.61   2 1.61
  15  0.125  0.625  0.625-   7 1.61   5 1.61   8 1.61   3 1.61
  16  0.625  0.625  0.625-   8 1.61   6 1.61   7 1.61   4 1.61

  LATTYP: Found a face centered cubic cell.
 ALAT       =     7.4490080791

  Lattice vectors:

 A1 = (   5.2672441260,   0.0000000000,   0.0000000000)
 A2 = (   2.6336220629,   4.5615672211,   0.0000000000)
 A3 = (   2.6336220629,   1.5205224070,   4.3006868197)

Analysis of symmetry for initial positions (statically):
 Subroutine PRICEL returns:
 Original cell was already a primitive cell.

 Routine SETGRP: Setting up the symmetry group for a
 face centered cubic supercell.

 Subroutine GETGRP returns: Found  2 space group operations
 (whereof  2 operations were pure point group operations)
 out of a pool of 48 trial point group operations.

The static configuration has the point symmetry C_1h.

Analysis of symmetry for dynamics (positions and initial velocities):
 Subroutine PRICEL returns:
 Original cell was already a primitive cell.

 Routine SETGRP: Setting up the symmetry group for a
 face centered cubic supercell.

 Subroutine GETGRP returns: Found  2 space group operations
 (whereof  2 operations were pure point group operations)
 out of a pool of 48 trial point group operations.

The dynamic configuration has the point symmetry C_1h.

 KPOINTS: B4C B11C-CBC

Automatic generation of k-mesh.
Space group operators:
 irot       det(A)        alpha          n_x          n_y          n_z        tau_x        tau_y        tau_z
    1     1.000000     0.000000     1.000000     0.000000     0.000000     0.000000     0.000000     0.000000
    2    -1.000000   180.000000     0.000000    -0.577350     0.816497     0.000000     0.000000     0.000000

 Subroutine IBZKPT returns following result:

 Found     72 irreducible k-points:

 Following reciprocal coordinates:
            Coordinates               Weight
  0.000000  0.000000  0.000000      1.000000
  0.166667  0.000000  0.000000      2.000000
  0.333333  0.000000  0.000000      2.000000
  0.500000  0.000000  0.000000      1.000000
  0.000000  0.166667 -0.000000      2.000000
  0.166667  0.166667  0.000000      2.000000
  0.333333  0.166667  0.000000      2.000000
  0.500000  0.166667  0.000000      2.000000
 -0.333333  0.166667 -0.000000      2.000000
 -0.166667  0.166667  0.000000      2.000000
  0.000000  0.333333 -0.000000      2.000000
  0.166667  0.333333 -0.000000      2.000000
  0.333333  0.333333  0.000000      2.000000
  0.500000  0.333333  0.000000      2.000000
 -0.333333  0.333333 -0.000000      2.000000
 -0.166667  0.333333 -0.000000      2.000000
  0.000000  0.500000  0.000000      2.000000
  0.166667  0.500000 -0.000000      4.000000
  0.333333  0.500000  0.000000      4.000000
  0.500000  0.500000  0.000000      2.000000
  0.000000  0.000000  0.250000      2.000000
  0.166667  0.000000  0.250000      2.000000
  0.333333  0.000000  0.250000      2.000000
  0.500000  0.000000  0.250000      2.000000
 -0.333333  0.000000  0.250000      2.000000
 -0.166667  0.000000  0.250000      2.000000
  0.000000  0.166667  0.250000      2.000000
  0.166667  0.166667  0.250000      2.000000
  0.333333  0.166667  0.250000      2.000000
  0.500000  0.166667  0.250000      2.000000
 -0.333333  0.166667  0.250000      2.000000
 -0.166667  0.166667  0.250000      2.000000
  0.000000  0.333333  0.250000      2.000000
  0.166667  0.333333  0.250000      2.000000
  0.333333  0.333333  0.250000      2.000000
  0.500000  0.333333  0.250000      2.000000
 -0.333333  0.333333  0.250000      2.000000
 -0.166667  0.333333  0.250000      2.000000
  0.000000  0.500000  0.250000      2.000000
  0.166667  0.500000  0.250000      2.000000
  0.333333  0.500000  0.250000      2.000000
  0.500000  0.500000  0.250000      2.000000
 -0.333333  0.500000  0.250000      2.000000
 -0.166667  0.500000  0.250000      2.000000
  0.000000 -0.333333  0.250000      2.000000
  0.166667 -0.333333  0.250000      2.000000
  0.333333 -0.333333  0.250000      2.000000
  0.500000 -0.333333  0.250000      2.000000
 -0.333333 -0.333333  0.250000      2.000000
 -0.166667 -0.333333  0.250000      2.000000
  0.000000 -0.166667  0.250000      2.000000
  0.166667 -0.166667  0.250000      2.000000
  0.333333 -0.166667  0.250000      2.000000
  0.500000 -0.166667  0.250000      2.000000
 -0.333333 -0.166667  0.250000      2.000000
 -0.166667 -0.166667  0.250000      2.000000
  0.000000  0.166667  0.500000      2.000000
  0.166667  0.166667  0.500000      2.000000
  0.333333  0.166667  0.500000      2.000000
  0.500000  0.166667  0.500000      2.000000
 -0.333333  0.166667  0.500000      2.000000
 -0.166667  0.166667  0.500000      2.000000
  0.000000  0.333333  0.500000      2.000000
  0.166667  0.333333  0.500000      2.000000
  0.333333  0.333333  0.500000      2.000000
  0.500000  0.333333  0.500000      2.000000
 -0.333333  0.333333  0.500000      2.000000
 -0.166667  0.333333  0.500000      2.000000
  0.000000  0.500000  0.500000      1.000000
  0.166667  0.500000  0.500000      2.000000
  0.333333  0.500000  0.500000      2.000000
  0.500000  0.500000  0.500000      1.000000

 Following cartesian coordinates:
            Coordinates               Weight
  0.000000  0.000000  0.000000      1.000000
  0.031642 -0.018269 -0.012918      2.000000
  0.063284 -0.036537 -0.025836      2.000000
  0.094926 -0.054806 -0.038753      1.000000
  0.000000  0.036537 -0.012918      2.000000
  0.031642  0.018269 -0.025836      2.000000
  0.063284  0.000000 -0.038753      2.000000
  0.094926 -0.018269 -0.051671      2.000000
 -0.063284  0.073074  0.012918      2.000000
 -0.031642  0.054806  0.000000      2.000000
  0.000000  0.073074 -0.025836      2.000000
  0.031642  0.054806 -0.038753      2.000000
  0.063284  0.036537 -0.051671      2.000000
  0.094926  0.018269 -0.064589      2.000000
 -0.063284  0.109611  0.000000      2.000000
 -0.031642  0.091343 -0.012918      2.000000
  0.000000  0.109611 -0.038753      2.000000
  0.031642  0.091343 -0.051671      4.000000
  0.063284  0.073074 -0.064589      4.000000
  0.094926  0.054806 -0.077507      2.000000
  0.000000  0.000000  0.058130      2.000000
  0.031642 -0.018269  0.045212      2.000000
  0.063284 -0.036537  0.032295      2.000000
  0.094926 -0.054806  0.019377      2.000000
 -0.063284  0.036537  0.083966      2.000000
 -0.031642  0.018269  0.071048      2.000000
  0.000000  0.036537  0.045212      2.000000
  0.031642  0.018269  0.032295      2.000000
  0.063284  0.000000  0.019377      2.000000
  0.094926 -0.018269  0.006459      2.000000
 -0.063284  0.073074  0.071048      2.000000
 -0.031642  0.054806  0.058130      2.000000
  0.000000  0.073074  0.032295      2.000000
  0.031642  0.054806  0.019377      2.000000
  0.063284  0.036537  0.006459      2.000000
  0.094926  0.018269 -0.006459      2.000000
 -0.063284  0.109611  0.058130      2.000000
 -0.031642  0.091343  0.045212      2.000000
  0.000000  0.109611  0.019377      2.000000
  0.031642  0.091343  0.006459      2.000000
  0.063284  0.073074 -0.006459      2.000000
  0.094926  0.054806 -0.019377      2.000000
 -0.063284  0.146149  0.045212      2.000000
 -0.031642  0.127880  0.032295      2.000000
  0.000000 -0.073074  0.083966      2.000000
  0.031642 -0.091343  0.071048      2.000000
  0.063284 -0.109611  0.058130      2.000000
  0.094926 -0.127880  0.045212      2.000000
 -0.063284 -0.036537  0.109802      2.000000
 -0.031642 -0.054806  0.096884      2.000000
  0.000000 -0.036537  0.071048      2.000000
  0.031642 -0.054806  0.058130      2.000000
  0.063284 -0.073074  0.045212      2.000000
  0.094926 -0.091343  0.032295      2.000000
 -0.063284 -0.000000  0.096884      2.000000
 -0.031642 -0.018269  0.083966      2.000000
  0.000000  0.036537  0.103343      2.000000
  0.031642  0.018269  0.090425      2.000000
  0.063284  0.000000  0.077507      2.000000
  0.094926 -0.018269  0.064589      2.000000
 -0.063284  0.073074  0.129178      2.000000
 -0.031642  0.054806  0.116261      2.000000
  0.000000  0.073074  0.090425      2.000000
  0.031642  0.054806  0.077507      2.000000
  0.063284  0.036537  0.064589      2.000000
  0.094926  0.018269  0.051671      2.000000
 -0.063284  0.109611  0.116261      2.000000
 -0.031642  0.091343  0.103343      2.000000
  0.000000  0.109611  0.077507      1.000000
  0.031642  0.091343  0.064589      2.000000
  0.063284  0.073074  0.051671      2.000000
  0.094926  0.054806  0.038754      1.000000

 TETIRR: Found    432 inequivalent tetrahedra from      864

 I would recommend the setting:
   dimension x,y,z NGX =    49 NGY =   49 NGZ =   49
 SYSTEM =  diamond
 POSCAR =  C

 Startparameter for this run:
   NWRITE =      2    write-flag & timer
   PREC   = accura    normal or accurate (medium, high low for compatibility)
   ISTART =      0    job   : 0-new  1-cont  2-samecut
   ICHARG =      2    charge: 1-file 2-atom 10-const
   ISPIN  =      1    spin polarized calculation?
   LNONCOLLINEAR =      F non collinear calculations
   LSORBIT =      F    spin-orbit coupling
   INIWAV =      1    electr: 0-lowe 1-rand  2-diag
   LASPH  =      F    aspherical Exc in radial PAW
   METAGGA=      F    non-selfconsistent MetaGGA calc.

 Electronic Relaxation 1
   ENCUT  =  800.0 eV  58.80 Ry    7.67 a.u.  12.15 12.15 12.15*2*pi/ulx,y,z
   ENINI  =  800.0     initial cutoff
   ENAUG  =  644.9 eV  augmentation charge cutoff
   NELM   =    200;   NELMIN=  2; NELMDL=  0     # of ELM steps
[...]
 k-point 24 :   0.5000 0.0000 0.2500  plane waves:    5314
 k-point 25 :  -0.3333 0.0000 0.2500  plane waves:    5311
 k-point 26 :  -0.1667 0.0000 0.2500  plane waves:    5310
 k-point 27 :   0.0000 0.1667 0.2500  plane waves:    5311
 k-point 28 :   0.1667 0.1667 0.2500  plane waves:    5294
 k-point 29 :   0.3333 0.1667 0.2500  plane waves:    5308
 k-point 30 :   0.5000 0.1667 0.2500  plane waves:    5306
 k-point 31 :  -0.3333 0.1667 0.2500  plane waves:    5310
 k-point 32 :  -0.1667 0.1667 0.2500  plane waves:    5313
 k-point 33 :   0.0000 0.3333 0.2500  plane waves:    5327
 k-point 34 :   0.1667 0.3333 0.2500  plane waves:    5308
 k-point 35 :   0.3333 0.3333 0.2500  plane waves:    5310
 k-point 36 :   0.5000 0.3333 0.2500  plane waves:    5306
 k-point 37 :  -0.3333 0.3333 0.2500  plane waves:    5309
 k-point 38 :  -0.1667 0.3333 0.2500  plane waves:    5311
 k-point 39 :   0.0000 0.5000 0.2500  plane waves:    5314
 k-point 40 :   0.1667 0.5000 0.2500  plane waves:    5306
 k-point 41 :   0.3333 0.5000 0.2500  plane waves:    5306
 k-point 42 :   0.5000 0.5000 0.2500  plane waves:    5314
 k-point 43 :  -0.3333 0.5000 0.2500  plane waves:    5307
 k-point 44 :  -0.1667 0.5000 0.2500  plane waves:    5307
 k-point 45 :   0.0000-0.3333 0.2500  plane waves:    5311
 k-point 46 :   0.1667-0.3333 0.2500  plane waves:    5310
 k-point 47 :   0.3333-0.3333 0.2500  plane waves:    5309
 k-point 48 :   0.5000-0.3333 0.2500  plane waves:    5307
 k-point 49 :  -0.3333-0.3333 0.2500  plane waves:    5314
 k-point 50 :  -0.1667-0.3333 0.2500  plane waves:    5299
 k-point 51 :   0.0000-0.1667 0.2500  plane waves:    5310
 k-point 52 :   0.1667-0.1667 0.2500  plane waves:    5313
 k-point 53 :   0.3333-0.1667 0.2500  plane waves:    5311
 k-point 54 :   0.5000-0.1667 0.2500  plane waves:    5307
 k-point 55 :  -0.3333-0.1667 0.2500  plane waves:    5299
 k-point 56 :  -0.1667-0.1667 0.2500  plane waves:    5319
 k-point 57 :   0.0000 0.1667 0.5000  plane waves:    5308
 k-point 58 :   0.1667 0.1667 0.5000  plane waves:    5315
 k-point 59 :   0.3333 0.1667 0.5000  plane waves:    5301
 k-point 60 :   0.5000 0.1667 0.5000  plane waves:    5309
 k-point 61 :  -0.3333 0.1667 0.5000  plane waves:    5316
 k-point 62 :  -0.1667 0.1667 0.5000  plane waves:    5308
 k-point 63 :   0.0000 0.3333 0.5000  plane waves:    5309
 k-point 64 :   0.1667 0.3333 0.5000  plane waves:    5301
 k-point 65 :   0.3333 0.3333 0.5000  plane waves:    5315
 k-point 66 :   0.5000 0.3333 0.5000  plane waves:    5308
 k-point 67 :  -0.3333 0.3333 0.5000  plane waves:    5308
 k-point 68 :  -0.1667 0.3333 0.5000  plane waves:    5316
 k-point 69 :   0.0000 0.5000 0.5000  plane waves:    5346
 k-point 70 :   0.1667 0.5000 0.5000  plane waves:    5309
 k-point 71 :   0.3333 0.5000 0.5000  plane waves:    5308
 k-point 72 :   0.5000 0.5000 0.5000  plane waves:    5342

 maximum and minimum number of plane-waves per node :      5346     5209

 maximum number of plane-waves:      5346
 maximum index in each direction:
   IXMAX=   12   IYMAX=   12   IZMAX=   12
   IXMIN=  -12   IYMIN=  -12   IZMIN=  -12

 NGX is ok and might be reduce to  50
 NGY is ok and might be reduce to  50
 NGZ is ok and might be reduce to  50

 serial   3D FFT for wavefunctions
 parallel 3D FFT for charge:
    minimum data exchange during FFTs selected (reduces bandwidth)

 Broyden mixing: mesh for mixing (old mesh)
   NGX = 25   NGY = 25   NGZ = 25
  (NGX  =100   NGY  =100   NGZ  =100)
  gives a total of  15625 points

 initial charge density was supplied:
 charge density of overlapping atoms calculated
 number of electron      64.0000000 magnetization
 keeping initial charge density in first step

 Maximum index for augmentation-charges        13865 (set IRDMAX)

 First call to EWALD:  gamma=   0.378
 Maximum number of real-space cells 3x 3x 3
 Maximum number of reciprocal cells 3x 3x 3

 FEWALD executed in parallel

----------------------------------------- Iteration    1(   1)  ---------------------------------------

 BZINTS: Fermi energy: 21.638404; 64.000000 electrons
         Band energy: 339.963120;  BLOECHL correction: -0.176264

 eigenvalue-minimisations  :  5904
 total energy-change (2. order) : 0.2698682E+03  (-0.4404647E+04)
 number of electron      64.0000000 magnetization
 augmentation part       64.0000000 magnetization

 Free energy of the ion-electron system (eV)
  alpha Z        PSCENC =       201.86290327
  Ewald energy   TEWEN  =     -2665.79767956
  -Hartree energ DENC   =      -164.67056605
  -exchange      EXHF   =         0.00000000
  -V(xc)+E(xc)   XCENC  =       222.44728546
  PAW double counting   =       605.30308954     -623.71076428
  entropy T*S    EENTRO =         0.00000000
  eigenvalues    EBANDS =       339.96312017
  atomic energy  EATOM  =      2354.47077523
  free energy    TOTEN  =       269.86816378 eV

  energy without entropy =      269.86816378  energy(sigma->0) =      269.86816378

[...]

 eigenvalue-minimisations  :  7570
 total energy-change (2. order) :-0.3981657E+03  (-0.3799496E+03)
 number of electron      64.0000000 magnetization
 augmentation part       64.0000000 magnetization

[...]

 Broyden mixing:
  rms(total) = 0.11502E+01    rms(broyden)= 0.11502E+01
  rms(prec ) = 0.23507E+01
  weight for this iteration     100.00

[...]

 eigenvalues of (default mixing * dielectric matrix)
  average eigenvalue GAMMA=   2.2155
  2.2155

[...]

 eigenvalue-minimisations  :  4895
 total energy-change (2. order) :-0.1497619E-07  (-0.9672927E-09)
 number of electron      63.9999999 magnetization
 augmentation part        1.3307409 magnetization

 Broyden mixing:
  rms(total) = 0.66602E-05    rms(broyden)= 0.66602E-05
  rms(prec ) = 0.14257E-04
  weight for this iteration     100.00

 eigenvalues of (default mixing * dielectric matrix)
  average eigenvalue GAMMA=   1.7327
  2.9638  2.6603  2.5080  2.0336  1.2221  1.2221  1.0267  1.0267  0.9311

[...]

----------------------------------------- Iteration    1(  15)  ---------------------------------------

[...]

 eigenvalue-minimisations  :  4864
 total energy-change (2. order) : 0.2213255E-08  (-0.2032769E-09)
 number of electron      63.9999999 magnetization
 augmentation part        1.3307409 magnetization

 Free energy of the ion-electron system (eV)
  alpha Z        PSCENC =       201.86290327
  Ewald energy   TEWEN  =     -2665.79767956
  -Hartree energ DENC   =      -226.40760568
  -exchange      EXHF   =         0.00000000
  -V(xc)+E(xc)   XCENC  =       228.20034434
  PAW double counting   =       926.93503225     -946.69425148
  entropy T*S    EENTRO =         0.00000000
  eigenvalues    EBANDS =       -16.32451373
  atomic energy  EATOM  =      2354.47077523
  free energy    TOTEN  =      -143.75499537 eV

  energy without entropy =     -143.75499537  energy(sigma->0) =     -143.75499537

 average (electrostatic) potential at core
  the test charge radii are     0.6991
  (the norm of the test charge is              1.0000)
       1 -47.1990       2 -47.1989       3 -47.2047       4 -47.1931       5 -47.2047
       6 -47.1931       7 -47.1989       8 -47.1989       9 -47.2062      10 -47.1915
      11 -47.1989      12 -47.1989      13 -47.1989      14 -47.1989      15 -47.2013
      16 -47.1965

 E-fermi :   8.0201     XC(G=0): -12.5835     alpha+bet :-15.5444

 k-point     1 :       0.0000    0.0000    0.0000
  band No.  band energies     occupation
      1     -11.8467      2.00000
      2      -6.7893      2.00000
      3      -6.7778      2.00000
      4      -6.7778      2.00000
      5      -6.7669      2.00000
      6      -4.0687      2.00000
      7      -4.0567      2.00000
      8      -4.0564      2.00000
      9      -4.0476      2.00000
     10      -3.9544      2.00000
     11      -3.9413      2.00000
     12      -3.9378      2.00000
     13      -3.9376      2.00000
     14      -3.9337      2.00000
     15      -3.9170      2.00000
     16       2.4006      2.00000
     17       2.4102      2.00000
     18       2.4110      2.00000
     19       2.4110      2.00000
     20       2.4118      2.00000
     21       2.4213      2.00000
     22       5.4532      2.00000
     23       5.4741      2.00000
     24       5.4805      2.00000
     25       5.4809      2.00000
     26       5.4834      2.00000
     27       5.4839      2.00000
     28       5.4905      2.00000
     29       5.5111      2.00000
     30       7.9459      2.00000
     31       7.9627      2.00000
     32       7.9799      2.00000
     33      12.4227      0.00000
     34      12.4339      0.00000
     35      12.4429      0.00000
     36      12.4430      0.00000
     37      12.4516      0.00000
     38      12.4618      0.00000
     39      13.1816      0.00000
     40      13.1968      0.00000
     41      13.2123      0.00000

[...]

 k-point    72 :       0.5000    0.5000    0.5000
  band No.  band energies     occupation
      1     -10.2931      2.00000
      2     -10.2780      2.00000
      3      -6.4396      2.00000
      4      -6.4225      2.00000
      5      -6.4214      2.00000
      6      -6.4186      2.00000
      7      -6.4180      2.00000
      8      -6.4040      2.00000
      9      -1.9550      2.00000
     10      -1.9508      2.00000
     11      -1.9503      2.00000
     12      -1.9452      2.00000
     13      -1.9434      2.00000
     14      -1.9254      2.00000
     15       1.8428      2.00000
     16       1.8784      2.00000
     17       1.8829      2.00000
     18       1.8881      2.00000
     19       1.8891      2.00000
     20       1.8910      2.00000
     21       1.9410      2.00000
     22       1.9509      2.00000
     23       3.6635      2.00000
     24       3.6646      2.00000
     25       3.6685      2.00000
     26       3.6745      2.00000
     27       3.6815      2.00000
     28       3.6966      2.00000
     29       6.4226      2.00000
     30       6.4232      2.00000
     31       6.4287      2.00000
     32       6.4543      2.00000
     33      13.6122      0.00000
     34      13.6159      0.00000
     35      13.6162      0.00000
     36      13.6180      0.00000
     37      13.6361      0.00000
     38      13.6393      0.00000
     39      14.9034      0.00000
     40      14.9175      0.00000
     41      15.1530      0.00000

 soft charge-density along one line, spin component           1
         0         1         2         3         4         5         6         7         8         9
 total charge-density along one line

------------------------ aborting loop because EDIFF is reached ----------------------------------------

         DFTD3 V3.0 Rev 1
 IVDW         = 12
 DF pbe
 parameters
 VDW_S6       =    1.0000
 VDW_S8       =    0.7875
 VDW_A1       =    0.4289
 VDW_A2       =    4.4407
 k1-k3        =   16.0000    1.3333   -4.0000
 VDW_RADIUS   =   50.2022 A
 VDW_CNRADIUS =   21.1671 A
 Edisp (eV)   -2.69166

 E6    (eV) :    -1.9145
 E8    (eV) :    -0.7772
 % E8        : 28.87

  FORCE on cell =-STRESS in cart. coord.  units (eV):
  Direction    XX          YY          ZZ          XY          YZ          ZX
  Alpha Z   201.86290   201.86290   201.86290
  Ewald    -888.60192  -888.59892  -888.60543     1.36388     0.00912     0.96441
  Hartree    75.46782    75.47040    75.46943     0.23088     0.00137     0.16325
  E(xc)    -232.57057  -232.57059  -232.57061     0.00491     0.00002     0.00347
  Local    -109.54334  -109.55531  -109.54637    -1.41784    -0.01259    -1.00256
  n-local   -45.81148   -45.60833   -46.01660     0.12024    -0.07344    -0.14035
  augment    -4.79666    -4.79660    -4.79663    -0.00057     0.00004    -0.00040
  Kinetic   976.21929   974.76419   977.68637    -1.07123     0.52341     1.05503
  Fock        0.00000     0.00000     0.00000     0.00000     0.00000     0.00000
  vdW        -2.64101    -2.64102    -2.64102    -0.00019     0.00000    -0.00014
  Total     -30.41498   -30.41458   -30.41664    -0.02174     0.00291    -0.01537
  in kB    -471.58796  -471.58187  -471.61381    -0.33713     0.04516    -0.23839

 VOLUME and BASIS-vectors are now :
  energy-cutoff  :      800.00
  volume of cell :      103.33
      direct lattice vectors                 reciprocal lattice vectors
     5.267244126  0.000000000  0.000000000     0.189852601 -0.109611451 -0.077507000
     2.633622063  4.561567221  0.000000000     0.000000000  0.219222901 -0.077507000
     2.633622063  1.520522407  4.300686820     0.000000000  0.000000000  0.232521000

  length of vectors
     5.267244126  5.267244126  5.267244126     0.232521000  0.232521000  0.232521000

 FORCES acting on ions
    electron-ion (+dipol)            ewald-force                    non-local-force                 convergence-correction
   0.123E+01 0.128E-01 0.907E-02   -.140E+01 -.150E-01 -.106E-01   -.175E+00 -.478E-03 -.338E-03   -.284E-04 -.143E-05 -.101E-05
   -.484E+00 0.217E-03 0.153E-03   0.512E+00 -.854E-06 -.240E-05   0.248E-01 -.188E-03 -.133E-03   0.239E-04 -.135E-05 -.957E-06
   -.580E-01 -.246E+00 -.257E-01   0.451E-01 0.270E+00 0.133E-01   0.135E-01 0.650E-02 0.243E-02   -.163E-07 0.133E-04 -.440E-05
   -.580E-01 0.246E+00 0.257E-01   0.451E-01 -.270E+00 -.133E-01   0.136E-01 -.647E-02 -.249E-02   0.333E-05 -.900E-05 0.420E-05
   -.580E-01 -.106E+00 -.223E+00   0.451E-01 0.102E+00 0.250E+00   0.135E-01 0.445E-02 0.532E-02   -.163E-07 0.271E-06 0.140E-04
   -.580E-01 0.106E+00 0.223E+00   0.451E-01 -.102E+00 -.250E+00   0.136E-01 -.451E-02 -.527E-02   0.333E-05 0.962E-06 -.989E-05
   0.126E+00 -.612E-04 -.432E-04   -.132E+00 -.854E-06 -.240E-05   0.578E-02 0.313E-04 0.222E-04   0.288E-05 -.299E-06 -.212E-06
   -.874E-01 0.106E-04 0.756E-05   0.934E-01 -.854E-06 -.240E-05   -.232E-02 0.101E-04 0.713E-05   -.437E-05 -.204E-06 -.144E-06
   -.560E+00 -.603E+00 -.426E+00   0.644E+00 0.639E+00 0.452E+00   0.118E-02 -.260E-01 -.184E-01   0.473E-05 0.679E-05 0.480E-05
   -.559E+00 0.594E+00 0.420E+00   0.641E+00 -.628E+00 -.444E+00   -.133E-02 0.266E-01 0.188E-01   -.324E-06 -.104E-04 -.736E-05
   0.477E+00 -.493E-02 0.184E-02   -.455E+00 0.492E-02 -.156E-02   0.455E-01 0.188E-03 -.107E-03   -.950E-05 0.440E-06 -.366E-06
   -.179E+00 0.119E-02 -.210E-03   0.169E+00 -.125E-02 0.237E-03   0.398E-02 0.150E-05 -.529E-05   0.708E-05 0.206E-05 -.108E-05
   0.477E+00 0.802E-04 -.526E-02   -.455E+00 0.166E-03 0.516E-02   0.455E-01 -.387E-04 0.213E-03   -.950E-05 -.199E-06 0.537E-06
   -.179E+00 0.193E-03 0.120E-02   0.169E+00 -.196E-03 -.126E-02   0.398E-02 -.449E-05 0.318E-05   0.708E-05 -.334E-06 0.231E-05
   -.167E-01 -.933E-01 -.659E-01   0.179E-01 0.868E-01 0.614E-01   -.310E-02 0.410E-02 0.290E-02   0.294E-05 0.428E-05 0.303E-05
   -.172E-01 0.933E-01 0.660E-01   0.185E-01 -.869E-01 -.614E-01   -.314E-02 -.410E-02 -.290E-02   0.293E-06 -.230E-05 -.162E-05
   0.267E-05 -.161E-03 -.657E-04   -.555E-14 0.244E-14 0.130E-13   -.210E-04 0.135E-03 0.956E-04   0.347E-05 0.253E-05 0.179E-05

 POSITION                                       TOTAL-FORCE (eV/Angst)
      0.01000      0.00000      0.00000        -0.343584     -0.002670     -0.001888
      2.63362      0.00000      0.00000         0.053601      0.000026      0.000018
      1.31681      2.28078      0.00000         0.000620      0.030546     -0.010050
      3.95043      2.28078      0.00000         0.000660     -0.030604      0.009970
      1.31681      0.76026      2.15034         0.000620      0.000706      0.032149
      3.95043      0.76026      2.15034         0.000660     -0.000801     -0.032177
      2.63362      3.04104      2.15034        -0.000668     -0.000032     -0.000022
      5.26724      3.04104      2.15034         0.003686      0.000019      0.000013
      1.31681      0.76026      0.53759         0.084886      0.010337      0.007309
      3.95043      0.76026      0.53759         0.080750     -0.007827     -0.005534
      2.63362      3.04104      0.53759         0.067131      0.000177      0.000161
      5.26724      3.04104      0.53759        -0.005850     -0.000056      0.000016
      2.63362      1.52052      2.68793         0.067131      0.000211      0.000114
      5.26724      1.52052      2.68793        -0.005850     -0.000004     -0.000058
      3.95043      3.80131      2.68793        -0.001906     -0.002299     -0.001626
      6.58406      3.80131      2.68793        -0.001887      0.002269      0.001605
    total drift:                               -0.000015     -0.000023      0.000032

  FREE ENERGIE OF THE ION-ELECTRON SYSTEM (eV)
  free  energy   TOTEN  =      -146.44665211 eV

  energy  without entropy=     -146.44665211  energy(sigma->0) =     -146.44665211

 BZINTS: Fermi energy:  8.020056; 64.000000 electrons
         Band energy: -16.324514;  BLOECHL correction:  0.000000