 vasp.5.3.5 31Mar14 (build Nov 02 2014 15:17:37) complex

 executed on        ion-Intel-MKL date 2016.09.22  22:45:29

 INCAR:
 POTCAR:   PAW_PBE C 08Apr2002
 POTCAR:   PAW_PBE C 08Apr2002
   VRHFIN =C: s2p2

   TITEL  = PAW_PBE C 08Apr2002
   POMASS =   12.011; ZVAL   =    4.000    mass and valenz
   ENMAX  =  400.000; ENMIN  =  300.000 eV
   QCUT   =   -5.516; QGAM   =   11.032    optimization parameters

   Description
     l     E      TYP  RCUT    TYP  RCUT
     0   .000     23  1.200
     0   .000     23  1.200
     1   .000     23  1.500
     1  2.500     23  1.500
     2   .000      7  1.500

 PAW_PBE C 08Apr2002                    :

 POSCAR: CIF file
  positions in cartesian coordinates
 exchange correlation table for  LEXCH =        8
   RHO(1)=    0.500       N(1)  =     2000
   RHO(2)=  100.500       N(2)  =     4000

 ion  position               nearest neighbor table
   1  0.999  0.001  0.583-   2 1.42   2 1.42   2 1.42
   2  0.333  0.667  0.583-   1 1.42   1 1.42   1 1.42

  LATTYP: Found a base centered orthorhombic cell.
 ALAT       =     2.4647749720
 B/A-ratio  =     1.7336082085
 C/A-ratio  =     8.1143310150

  Lattice vectors:

 A1 = (   2.4664373398,   0.0000000000,   0.0000000000)
 A2 = (  -1.2348804775,   2.1350370857,   0.0000000000)
 A3 = (   0.0000000000,   0.0000000000,  20.0000000000)

Analysis of symmetry for initial positions (statically):
 Subroutine PRICEL returns:
 Original cell was already a primitive cell.

 Routine SETGRP: Setting up the symmetry group for a
 base centered orthorhombic supercell.

 Subroutine GETGRP returns: Found  8 space group operations
 (whereof  2 operations were pure point group operations)
 out of a pool of  8 trial point group operations.

The static configuration has the point symmetry C_1h.
 The point group associated with its full space group is D_2h.

Analysis of symmetry for dynamics (positions and initial velocities):
 Subroutine PRICEL returns:
 Original cell was already a primitive cell.

 Routine SETGRP: Setting up the symmetry group for a
 base centered orthorhombic supercell.

 Subroutine GETGRP returns: Found  8 space group operations
 (whereof  2 operations were pure point group operations)
 out of a pool of  8 trial point group operations.

The dynamic configuration has the point symmetry C_1h.
 The point group associated with its full space group is D_2h.

 KPOINTS: B4C B11C-CBC

Automatic generation of k-mesh.
Space group operators:
 irot       det(A)        alpha          n_x          n_y          n_z        tau_x        tau_y        tau_z
    1     1.000000     0.000000     1.000000     0.000000     0.000000     0.000000     0.000000     0.000000
    2    -1.000000   180.000000    -0.499663    -0.866220     0.000000     0.000000     0.000000     0.000000
    3    -1.000000     0.000000     1.000000     0.000000     0.000000     0.331932     0.668069     0.165794
    4     1.000000   180.000000     0.000000     0.000000     1.000000     0.331932     0.668069     0.000000
    5    -1.000000   180.000000     0.000000     0.000000     1.000000     0.000000     0.000000     0.165794
    6     1.000000   180.000000     0.866220    -0.499663     0.000000     0.000000     0.000000     0.165794
    7    -1.000000   180.000000     0.866220    -0.499663     0.000000     0.331932     0.668069     0.000000
    8     1.000000   180.000000    -0.499663    -0.866220     0.000000     0.331932     0.668069     0.165794

 Subroutine IBZKPT returns following result:

 Found    455 irreducible k-points:

 Following reciprocal coordinates:
            Coordinates               Weight
  0.000000  0.000000  0.000000      1.000000
  0.055556  0.000000  0.000000      4.000000
  0.111111  0.000000  0.000000      4.000000
  0.166667  0.000000  0.000000      4.000000
  0.222222  0.000000  0.000000      4.000000
  0.277778  0.000000  0.000000      4.000000
  0.333333  0.000000  0.000000      4.000000
  0.388889  0.000000  0.000000      4.000000
  0.444444  0.000000  0.000000      4.000000
  0.500000  0.000000  0.000000      2.000000
  0.055556  0.055556  0.000000      2.000000
  0.111111  0.055556  0.000000      4.000000
  0.166667  0.055556  0.000000      4.000000
  0.222222  0.055556  0.000000      4.000000
  0.277778  0.055556  0.000000      4.000000
  0.333333  0.055556  0.000000      4.000000
  0.388889  0.055556  0.000000      4.000000
  0.444444  0.055556  0.000000      4.000000
  0.500000  0.055556  0.000000      4.000000
 -0.444444  0.055556  0.000000      4.000000
 -0.388889  0.055556  0.000000      4.000000
 -0.333333  0.055556  0.000000      4.000000
 -0.277778  0.055556  0.000000      4.000000
 -0.222222  0.055556  0.000000      4.000000
 -0.166667  0.055556  0.000000      4.000000
 -0.111111  0.055556  0.000000      4.000000
 -0.055556  0.055556  0.000000      2.000000
  0.111111  0.111111  0.000000      2.000000
  0.166667  0.111111  0.000000      4.000000
  0.222222  0.111111  0.000000      4.000000
  0.277778  0.111111  0.000000      4.000000
  0.333333  0.111111  0.000000      4.000000
  0.388889  0.111111  0.000000      4.000000
  0.444444  0.111111  0.000000      4.000000
  0.500000  0.111111  0.000000      4.000000
 -0.444444  0.111111  0.000000      4.000000
 -0.388889  0.111111  0.000000      4.000000
 -0.333333  0.111111  0.000000      4.000000
 -0.277778  0.111111  0.000000      4.000000
 -0.222222  0.111111  0.000000      4.000000
 -0.166667  0.111111  0.000000      4.000000
 -0.111111  0.111111  0.000000      2.000000
  0.166667  0.166667  0.000000      2.000000
  0.222222  0.166667  0.000000      4.000000
  0.277778  0.166667  0.000000      4.000000
  0.333333  0.166667  0.000000      4.000000
  0.388889  0.166667  0.000000      4.000000
  0.444444  0.166667  0.000000      4.000000
  0.500000  0.166667  0.000000      4.000000
 -0.444444  0.166667  0.000000      4.000000
 -0.388889  0.166667  0.000000      4.000000
 -0.333333  0.166667  0.000000      4.000000
 -0.277778  0.166667  0.000000      4.000000
 -0.222222  0.166667  0.000000      4.000000
 -0.166667  0.166667  0.000000      2.000000
  0.222222  0.222222  0.000000      2.000000
  0.277778  0.222222  0.000000      4.000000
  0.333333  0.222222  0.000000      4.000000
  0.388889  0.222222  0.000000      4.000000
  0.444444  0.222222  0.000000      4.000000
[...]
  0.388889  0.333333  0.500000      4.000000
  0.444444  0.333333  0.500000      4.000000
  0.500000  0.333333  0.500000      4.000000
 -0.444444  0.333333  0.500000      4.000000
 -0.388889  0.333333  0.500000      4.000000
 -0.333333  0.333333  0.500000      2.000000
  0.388889  0.388889  0.500000      2.000000
  0.444444  0.388889  0.500000      4.000000
  0.500000  0.388889  0.500000      4.000000
 -0.444444  0.388889  0.500000      4.000000
 -0.388889  0.388889  0.500000      2.000000
  0.444444  0.444444  0.500000      2.000000
  0.500000  0.444444  0.500000      4.000000
 -0.444444  0.444444  0.500000      2.000000
  0.500000  0.500000  0.500000      1.000000

 Following cartesian coordinates:
            Coordinates               Weight
  0.000000  0.000000  0.000000      1.000000
  0.022525  0.013028  0.000000      4.000000
  0.045049  0.026056  0.000000      4.000000
  0.067574  0.039084  0.000000      4.000000
  0.090098  0.052112  0.000000      4.000000
  0.112623  0.065140  0.000000      4.000000
  0.135148  0.078168  0.000000      4.000000
  0.157672  0.091196  0.000000      4.000000
  0.180197  0.104224  0.000000      4.000000
  0.202722  0.117252  0.000000      2.000000
  0.022525  0.039049  0.000000      2.000000
  0.045049  0.052077  0.000000      4.000000
  0.067574  0.065105  0.000000      4.000000
  0.090098  0.078133  0.000000      4.000000
  0.112623  0.091161  0.000000      4.000000
  0.135148  0.104189  0.000000      4.000000
  0.157672  0.117217  0.000000      4.000000
  0.180197  0.130245  0.000000      4.000000
  0.202722  0.143273  0.000000      4.000000
 -0.180197 -0.078203  0.000000      4.000000
 -0.157672 -0.065175  0.000000      4.000000
 -0.135148 -0.052147  0.000000      4.000000
 -0.112623 -0.039119  0.000000      4.000000
 -0.090098 -0.026091  0.000000      4.000000
 -0.067574 -0.013063  0.000000      4.000000
 -0.045049 -0.000035  0.000000      4.000000
 -0.022525  0.012993  0.000000      2.000000
  0.045049  0.078098  0.000000      2.000000
  0.067574  0.091126  0.000000      4.000000
  0.090098  0.104154  0.000000      4.000000
  0.112623  0.117182  0.000000      4.000000
  0.135148  0.130210  0.000000      4.000000
  0.157672  0.143238  0.000000      4.000000
  0.180197  0.156266  0.000000      4.000000
  0.202722  0.169294  0.000000      4.000000
 -0.180197 -0.052182  0.000000      4.000000
 -0.157672 -0.039154  0.000000      4.000000
 -0.135148 -0.026126  0.000000      4.000000
 -0.112623 -0.013098  0.000000      4.000000
 -0.090098 -0.000070  0.000000      4.000000
 -0.067574  0.012958  0.000000      4.000000
 -0.045049  0.025986  0.000000      2.000000
  0.067574  0.117147  0.000000      2.000000
  0.090098  0.130175  0.000000      4.000000
  0.112623  0.143203  0.000000      4.000000
  0.135148  0.156231  0.000000      4.000000
  0.157672  0.169258  0.000000      4.000000
  0.180197  0.182286  0.000000      4.000000
  0.202722  0.195314  0.000000      4.000000
 -0.180197 -0.026161  0.000000      4.000000
 -0.157672 -0.013133  0.000000      4.000000
 -0.135148 -0.000105  0.000000      4.000000
 -0.112623  0.012923  0.000000      4.000000
 -0.090098  0.025951  0.000000      4.000000
 -0.067574  0.038979  0.000000      2.000000
  0.090098  0.156195  0.000000      2.000000
  0.112623  0.169223  0.000000      4.000000
  0.135148  0.182251  0.000000      4.000000
  0.157672  0.195279  0.000000      4.000000
  0.180197  0.208307  0.000000      4.000000
[...]
  0.157672  0.247321  0.025000      4.000000
  0.180197  0.260349  0.025000      4.000000
  0.202722  0.273377  0.025000      4.000000
 -0.180197  0.051902  0.025000      4.000000
 -0.157672  0.064929  0.025000      4.000000
 -0.135148  0.077957  0.025000      2.000000
  0.157672  0.273342  0.025000      2.000000
  0.180197  0.286370  0.025000      4.000000
  0.202722  0.299398  0.025000      4.000000
 -0.180197  0.077922  0.025000      4.000000
 -0.157672  0.090950  0.025000      2.000000
  0.180197  0.312391  0.025000      2.000000
  0.202722  0.325419  0.025000      4.000000
 -0.180197  0.103943  0.025000      2.000000
  0.202722  0.351440  0.025000      1.000000

 TETIRR: Found   3888 inequivalent tetrahedra from    15552

 I would recommend the setting:
   dimension x,y,z NGX =    20 NGY =   20 NGZ =  160
 SYSTEM =  graphite
 POSCAR =  CIF file

 Startparameter for this run:
   NWRITE =      2    write-flag & timer
   PREC   = accura    normal or accurate (medium, high low for compatibility)
   ISTART =      0    job   : 0-new  1-cont  2-samecut
   ICHARG =      2    charge: 1-file 2-atom 10-const
   ISPIN  =      1    spin polarized calculation?
   LNONCOLLINEAR =      F non collinear calculations
   LSORBIT =      F    spin-orbit coupling
   INIWAV =      1    electr: 0-lowe 1-rand  2-diag
   LASPH  =      F    aspherical Exc in radial PAW
   METAGGA=      F    non-selfconsistent MetaGGA calc.
[...]
 k-point 18 :   0.4444 0.0556 0.0000  plane waves:    3528
 k-point 19 :   0.5000 0.0556 0.0000  plane waves:    3524
 k-point 20 :  -0.4444 0.0556 0.0000  plane waves:    3514
 k-point 21 :  -0.3889 0.0556 0.0000  plane waves:    3510
 k-point 22 :  -0.3333 0.0556 0.0000  plane waves:    3502
 k-point 23 :  -0.2778 0.0556 0.0000  plane waves:    3497
 k-point 24 :  -0.2222 0.0556 0.0000  plane waves:    3495
 k-point 25 :  -0.1667 0.0556 0.0000  plane waves:    3482
 k-point 26 :  -0.1111 0.0556 0.0000  plane waves:    3453
 k-point 27 :  -0.0556 0.0556 0.0000  plane waves:    3455
 k-point 28 :   0.1111 0.1111 0.0000  plane waves:    3485
 k-point 29 :   0.1667 0.1111 0.0000  plane waves:    3508
 k-point 30 :   0.2222 0.1111 0.0000  plane waves:    3499
 k-point 31 :   0.2778 0.1111 0.0000  plane waves:    3498
 k-point 32 :   0.3333 0.1111 0.0000  plane waves:    3517
 k-point 33 :   0.3889 0.1111 0.0000  plane waves:    3529
 k-point 34 :   0.4444 0.1111 0.0000  plane waves:    3539
 k-point 35 :   0.5000 0.1111 0.0000  plane waves:    3531
 k-point 36 :  -0.4444 0.1111 0.0000  plane waves:    3515
 k-point 37 :  -0.3889 0.1111 0.0000  plane waves:    3500
 k-point 38 :  -0.3333 0.1111 0.0000  plane waves:    3497
 k-point 39 :  -0.2778 0.1111 0.0000  plane waves:    3506
 k-point 40 :  -0.2222 0.1111 0.0000  plane waves:    3485
 k-point 41 :  -0.1667 0.1111 0.0000  plane waves:    3484
 k-point 42 :  -0.1111 0.1111 0.0000  plane waves:    3457
 k-point 43 :   0.1667 0.1667 0.0000  plane waves:    3497
 k-point 44 :   0.2222 0.1667 0.0000  plane waves:    3498
 k-point 45 :   0.2778 0.1667 0.0000  plane waves:    3515
 k-point 46 :   0.3333 0.1667 0.0000  plane waves:    3533
 k-point 47 :   0.3889 0.1667 0.0000  plane waves:    3543
 k-point 48 :   0.4444 0.1667 0.0000  plane waves:    3543
 k-point 49 :   0.5000 0.1667 0.0000  plane waves:    3533
 k-point 50 :  -0.4444 0.1667 0.0000  plane waves:    3513
 k-point 51 :  -0.3889 0.1667 0.0000  plane waves:    3496
 k-point 52 :  -0.3333 0.1667 0.0000  plane waves:    3497
 k-point 53 :  -0.2778 0.1667 0.0000  plane waves:    3506
 k-point 54 :  -0.2222 0.1667 0.0000  plane waves:    3497
 k-point 55 :  -0.1667 0.1667 0.0000  plane waves:    3493
 k-point 56 :   0.2222 0.2222 0.0000  plane waves:    3527
 k-point 57 :   0.2778 0.2222 0.0000  plane waves:    3548
 k-point 58 :   0.3333 0.2222 0.0000  plane waves:    3556
 k-point 59 :   0.3889 0.2222 0.0000  plane waves:    3555
 k-point 60 :   0.4444 0.2222 0.0000  plane waves:    3554
[...]
 k-point 85 :   0.5000 0.3889 0.0000  plane waves:    3531
 k-point 86 :  -0.4444 0.3889 0.0000  plane waves:    3512
 k-point 87 :  -0.3889 0.3889 0.0000  plane waves:    3522
 k-point 88 :   0.4444 0.4444 0.0000  plane waves:    3541
 k-point 89 :   0.5000 0.4444 0.0000  plane waves:    3530
 k-point 90 :  -0.4444 0.4444 0.0000  plane waves:    3518
 k-point 91 :   0.5000 0.5000 0.0000  plane waves:    3512
 k-point 92 :   0.0000 0.0000 0.1250  plane waves:    3466
 k-point 93 :   0.0556 0.0000 0.1250  plane waves:    3458
 k-point 94 :   0.1111 0.0000 0.1250  plane waves:    3460
 k-point 95 :   0.1667 0.0000 0.1250  plane waves:    3490
 k-point 96 :   0.2222 0.0000 0.1250  plane waves:    3504
 k-point 97 :   0.2778 0.0000 0.1250  plane waves:    3488
 k-point 98 :   0.3333 0.0000 0.1250  plane waves:    3510
 k-point 99 :   0.3889 0.0000 0.1250  plane waves:    3516
 k-point ** :   0.4444 0.0000 0.1250  plane waves:    3518
 k-point ** :   0.5000 0.0000 0.1250  plane waves:    3506
 k-point ** :   0.0556 0.0556 0.1250  plane waves:    3449
 k-point ** :   0.1111 0.0556 0.1250  plane waves:    3480
 k-point ** :   0.1667 0.0556 0.1250  plane waves:    3496
 k-point ** :   0.2222 0.0556 0.1250  plane waves:    3498
 k-point ** :   0.2778 0.0556 0.1250  plane waves:    3499
 k-point ** :   0.3333 0.0556 0.1250  plane waves:    3514
 k-point ** :   0.3889 0.0556 0.1250  plane waves:    3510
 k-point ** :   0.4444 0.0556 0.1250  plane waves:    3524
 k-point ** :   0.5000 0.0556 0.1250  plane waves:    3525
 k-point ** :  -0.4444 0.0556 0.1250  plane waves:    3512
 k-point ** :  -0.3889 0.0556 0.1250  plane waves:    3511
 k-point ** :  -0.3333 0.0556 0.1250  plane waves:    3499
 k-point ** :  -0.2778 0.0556 0.1250  plane waves:    3498
 k-point ** :  -0.2222 0.0556 0.1250  plane waves:    3493
 k-point ** :  -0.1667 0.0556 0.1250  plane waves:    3479
 k-point ** :  -0.1111 0.0556 0.1250  plane waves:    3453
 k-point ** :  -0.0556 0.0556 0.1250  plane waves:    3458
 k-point ** :   0.1111 0.1111 0.1250  plane waves:    3484
 k-point ** :   0.1667 0.1111 0.1250  plane waves:    3507
 k-point ** :   0.2222 0.1111 0.1250  plane waves:    3498
 k-point ** :   0.2778 0.1111 0.1250  plane waves:    3506
 k-point ** :   0.3333 0.1111 0.1250  plane waves:    3516
 k-point ** :   0.3889 0.1111 0.1250  plane waves:    3537
 k-point ** :   0.4444 0.1111 0.1250  plane waves:    3538
 k-point ** :   0.5000 0.1111 0.1250  plane waves:    3535
 k-point ** :  -0.4444 0.1111 0.1250  plane waves:    3517
 k-point ** :  -0.3889 0.1111 0.1250  plane waves:    3506
 k-point ** :  -0.3333 0.1111 0.1250  plane waves:    3497
 k-point ** :  -0.2778 0.1111 0.1250  plane waves:    3506
 k-point ** :  -0.2222 0.1111 0.1250  plane waves:    3484
 k-point ** :  -0.1667 0.1111 0.1250  plane waves:    3480
 k-point ** :  -0.1111 0.1111 0.1250  plane waves:    3463
 k-point ** :   0.1667 0.1667 0.1250  plane waves:    3504
 k-point ** :   0.2222 0.1667 0.1250  plane waves:    3500
 k-point ** :   0.2778 0.1667 0.1250  plane waves:    3516
 k-point ** :   0.3333 0.1667 0.1250  plane waves:    3533
 k-point ** :   0.3889 0.1667 0.1250  plane waves:    3543
 k-point ** :   0.4444 0.1667 0.1250  plane waves:    3544
 k-point ** :   0.5000 0.1667 0.1250  plane waves:    3532
 k-point ** :  -0.4444 0.1667 0.1250  plane waves:    3514
 k-point ** :  -0.3889 0.1667 0.1250  plane waves:    3502
 k-point ** :  -0.3333 0.1667 0.1250  plane waves:    3502
 k-point ** :  -0.2778 0.1667 0.1250  plane waves:    3505
 k-point ** :  -0.2222 0.1667 0.1250  plane waves:    3493
 k-point ** :  -0.1667 0.1667 0.1250  plane waves:    3489
 k-point ** :   0.2222 0.2222 0.1250  plane waves:    3526
 k-point ** :   0.2778 0.2222 0.1250  plane waves:    3545
 k-point ** :   0.3333 0.2222 0.1250  plane waves:    3556
 k-point ** :   0.3889 0.2222 0.1250  plane waves:    3556
 k-point ** :   0.4444 0.2222 0.1250  plane waves:    3557
 k-point ** :   0.5000 0.2222 0.1250  plane waves:    3543
 k-point ** :  -0.4444 0.2222 0.1250  plane waves:    3527
 k-point ** :  -0.3889 0.2222 0.1250  plane waves:    3500
 k-point ** :  -0.3333 0.2222 0.1250  plane waves:    3498
 k-point ** :  -0.2778 0.2222 0.1250  plane waves:    3498
 k-point ** :  -0.2222 0.2222 0.1250  plane waves:    3501
 k-point ** :   0.2778 0.2778 0.1250  plane waves:    3567
 k-point ** :   0.3333 0.2778 0.1250  plane waves:    3573
[...]
 k-point ** :   0.3889 0.3333 0.5000  plane waves:    3568
 k-point ** :   0.4444 0.3333 0.5000  plane waves:    3552
 k-point ** :   0.5000 0.3333 0.5000  plane waves:    3546
 k-point ** :  -0.4444 0.3333 0.5000  plane waves:    3530
 k-point ** :  -0.3889 0.3333 0.5000  plane waves:    3516
 k-point ** :  -0.3333 0.3333 0.5000  plane waves:    3506
 k-point ** :   0.3889 0.3889 0.5000  plane waves:    3562
 k-point ** :   0.4444 0.3889 0.5000  plane waves:    3550
 k-point ** :   0.5000 0.3889 0.5000  plane waves:    3536
 k-point ** :  -0.4444 0.3889 0.5000  plane waves:    3522
 k-point ** :  -0.3889 0.3889 0.5000  plane waves:    3518
 k-point ** :   0.4444 0.4444 0.5000  plane waves:    3540
 k-point ** :   0.5000 0.4444 0.5000  plane waves:    3518
 k-point ** :  -0.4444 0.4444 0.5000  plane waves:    3524
 k-point ** :   0.5000 0.5000 0.5000  plane waves:    3508

 maximum and minimum number of plane-waves per node :      1209     1137

 maximum number of plane-waves:      3579
 maximum index in each direction:
   IXMAX=    5   IYMAX=    4   IZMAX=   39
   IXMIN=   -5   IYMIN=   -5   IZMIN=  -40

 WARNING: aliasing errors must be expected set NGX to  22 to avoid them
 NGY is ok and might be reduce to  20
 NGZ is ok and might be reduce to 160
 aliasing errors are usually negligible using standard VASP settings
 and one can safely disregard these warnings

 parallel 3D FFT for wavefunctions:
    minimum data exchange during FFTs selected (reduces bandwidth)
 parallel 3D FFT for charge:
    minimum data exchange during FFTs selected (reduces bandwidth)

 Broyden mixing: mesh for mixing (old mesh)
   NGX =  9   NGY =  9   NGZ = 79
  (NGX  = 40   NGY  = 40   NGZ  =320)
  gives a total of   6399 points

 initial charge density was supplied:
 charge density of overlapping atoms calculated
 number of electron       8.0000000 magnetization
 keeping initial charge density in first step

 Maximum index for augmentation-charges         1300 (set IRDMAX)

 First call to EWALD:  gamma=   0.375
 Maximum number of real-space cells 5x 5x 1
 Maximum number of reciprocal cells 2x 2x10

 FEWALD executed in parallel

----------------------------------------- Iteration    1(   1)  ---------------------------------------

 BZINTS: Fermi energy:  4.716153;  8.000000 electrons
         Band energy: -44.579621;  BLOECHL correction: -0.295965

 eigenvalue-minimisations  :  7296
 total energy-change (2. order) : 0.6545839E+02  (-0.3543125E+03)
 number of electron       8.0000000 magnetization
 augmentation part        8.0000000 magnetization

 Free energy of the ion-electron system (eV)
  alpha Z        PSCENC =         3.09461325
  Ewald energy   TEWEN  =      1294.91951791
  -Hartree energ DENC   =     -1507.53105140
  -exchange      EXHF   =         0.00000000
  -V(xc)+E(xc)   XCENC  =        27.55531207
  PAW double counting   =        75.66288619      -77.96384553
  entropy T*S    EENTRO =         0.00000000
  eigenvalues    EBANDS =       -44.57962052
  atomic energy  EATOM  =       294.30057552
  free energy    TOTEN  =        65.45838748 eV

  energy without entropy =       65.45838748  energy(sigma->0) =       65.45838748

[...]

 BZINTS: Fermi energy: -4.641385;  8.000000 electrons
         Band energy:-124.722372;  BLOECHL correction: -0.021682

 eigenvalue-minimisations  : 10984
 total energy-change (2. order) :-0.8014275E+02  (-0.6719824E+02)
 number of electron       8.0000000 magnetization
 augmentation part        8.0000000 magnetization

[...]

 Broyden mixing:
  rms(total) = 0.55268E+00    rms(broyden)= 0.55262E+00
  rms(prec ) = 0.60233E+00
  weight for this iteration     100.00

[...]

 eigenvalues of (default mixing * dielectric matrix)
  average eigenvalue GAMMA=   2.0414
  2.0414

[...]

 BZINTS: Fermi energy: -3.458504;  8.000000 electrons
         Band energy:-100.935274;  BLOECHL correction:  0.000000

[...]

 eigenvalue-minimisations  : 10424
 total energy-change (2. order) : 0.1179032E-02  (-0.1804470E-03)
 number of electron       8.0000000 magnetization
 augmentation part        0.1918258 magnetization

[...]

 Broyden mixing:
  rms(total) = 0.83312E-05    rms(broyden)= 0.83305E-05
  rms(prec ) = 0.99151E-05
  weight for this iteration     100.00

 eigenvalues of (default mixing * dielectric matrix)
  average eigenvalue GAMMA=   3.2862
  9.1141  8.2410  5.3018  3.7146  2.9832  2.6361  2.4686  1.9793  2.2378  0.9879
  1.0099  1.0099  1.0370

[...]

----------------------------------------- Iteration    1(  19)  ---------------------------------------

[...]

 eigenvalue-minimisations  : 10544
 total energy-change (2. order) :-0.4277817E-06  (-0.4057601E-09)
 number of electron       8.0000000 magnetization
 augmentation part        0.1917372 magnetization

 Free energy of the ion-electron system (eV)
  alpha Z        PSCENC =         3.09461325
  Ewald energy   TEWEN  =      1294.91951791
  -Hartree energ DENC   =     -1541.88102436
  -exchange      EXHF   =         0.00000000
  -V(xc)+E(xc)   XCENC  =        28.76910673
  PAW double counting   =       138.84054139     -141.42295887
  entropy T*S    EENTRO =         0.00000000
  eigenvalues    EBANDS =       -95.06508289
  atomic energy  EATOM  =       294.30057552
  free energy    TOTEN  =       -18.44471133 eV

  energy without entropy =      -18.44471133  energy(sigma->0) =      -18.44471133

 average (electrostatic) potential at core
  the test charge radii are     0.6991
  (the norm of the test charge is              1.0000)
       1 -58.1775       2 -58.1775

 E-fermi :  -2.7453     XC(G=0):  -2.1700     alpha+bet : -1.9064

 k-point     1 :       0.0000    0.0000    0.0000
  band No.  band energies     occupation
      1     -22.2613      2.00000
      2     -10.3626      2.00000
      3      -5.7856      2.00000
      4      -5.7659      2.00000
      5       0.5216      0.00000
      6       1.3144      0.00000
      7       1.6553      0.00000
      8       2.5880      0.00000

[...]

 k-point   455 :       0.5000    0.5000    0.5000
  band No.  band energies     occupation
      1     -17.0248      2.00000
      2     -15.9807      2.00000
      3      -9.1404      2.00000
      4      -5.1108      2.00000
      5      -1.0723      0.00000
      6       4.6549      0.00000
      7       8.3665      0.00000
      8       8.5215      0.00000

 soft charge-density along one line, spin component           1
         0         1         2         3         4         5         6         7         8         9
 total charge-density along one line

------------------------ aborting loop because EDIFF is reached ----------------------------------------

         DFTD3 V3.0 Rev 1
 IVDW         = 12
 DF pbe
 parameters
 VDW_S6       =    1.0000
 VDW_S8       =    0.7875
 VDW_A1       =    0.4289
 VDW_A2       =    4.4407
 k1-k3        =   16.0000    1.3333   -4.0000
 VDW_RADIUS   =   50.2022 A
 VDW_CNRADIUS =   21.1671 A
 Edisp (eV)   -0.17722

 E6    (eV) :    -0.1218
 E8    (eV) :    -0.0555
 % E8        : 31.29

  FORCE on cell =-STRESS in cart. coord.  units (eV):
  Direction    XX          YY          ZZ          XY          YZ          ZX
  Alpha Z     3.09461     3.09461     3.09461
  Ewald    1563.81939  1563.79068 -1832.69059    -0.02485     0.00000    -0.00000
  Hartree  1530.55710  1530.57029 -1519.24587     0.01140     0.00000    -0.00000
  E(xc)     -29.17765   -29.17756   -30.34701     0.00007    -0.00000     0.00000
  Local   -3180.47278 -3180.48443  3248.85757    -0.01006    -0.00000     0.00000
  n-local    -7.22906    -6.85744    -6.40506    -0.11921     0.00001    -0.00001
  augment    -0.77347    -0.77331    -0.70863     0.00014     0.00000    -0.00000
  Kinetic   121.94479   118.22101   137.40697     1.07431     0.00000    -0.00000
  Fock        0.00000     0.00000     0.00000     0.00000     0.00000     0.00000
  vdW        -0.04314    -0.04282    -0.00045     0.00028    -0.00000     0.00000
  Total       0.04993     0.01090    -0.03847    -0.03374    -0.00000    -0.00000
  in kB       0.75961     0.16589    -0.58518    -0.51325    -0.00000    -0.00000

 VOLUME and BASIS-vectors are now :
  energy-cutoff  :      600.00
  volume of cell :      105.32
      direct lattice vectors                 reciprocal lattice vectors
     2.466437340  0.000000000  0.000000000     0.405443100  0.234503546  0.000000000
    -1.234880477  2.135037086  0.000000000     0.000000000  0.468375939  0.000000000
     0.000000000  0.000000000 20.000000000     0.000000000  0.000000000  0.050000000

  length of vectors
     2.466437340  2.466437340 20.000000000     0.468375939  0.468375939  0.050000000

 FORCES acting on ions
    electron-ion (+dipol)            ewald-force                    non-local-force                 convergence-correction
   -.168E+00 0.969E-01 0.603E-06   0.108E+00 -.624E-01 -.106E-21   -.214E-01 0.123E-01 0.000E+00   0.113E-05 -.654E-06 0.221E-10
   0.168E+00 -.969E-01 0.656E-06   -.108E+00 0.624E-01 0.106E-21   0.214E-01 -.123E-01 0.000E+00   -.113E-05 0.654E-06 0.288E-10
   -.137E-06 -.133E-04 0.126E-05   0.150E-14 -.373E-14 0.000E+00   -.111E-15 0.000E+00 0.000E+00   -.896E-11 -.362E-11 0.509E-10

 POSITION                                       TOTAL-FORCE (eV/Angst)
      2.46402      0.00140     11.65794        -0.081214      0.046847      0.000000
     -0.00388      1.42496     11.65794         0.081214     -0.046847      0.000000
    total drift:                               -0.000000     -0.000013      0.000001

  FREE ENERGIE OF THE ION-ELECTRON SYSTEM (eV)
  free  energy   TOTEN  =       -18.62193567 eV

  energy  without entropy=      -18.62193567  energy(sigma->0) =      -18.62193567

 BZINTS: Fermi energy: -2.745312;  8.000000 electrons
         Band energy: -95.065083;  BLOECHL correction:  0.000000