 vasp.5.3.5 31Mar14 (build Nov 04 2014 22:34:45) complex

 executed on         atom-AMD-MKL date 2016.10.14  20:04:49

 INCAR:
 POTCAR:   PAW_PBE C 08Apr2002

 POTCAR:   PAW_PBE C 08Apr2002
   VRHFIN =C: s2p2

   TITEL  = PAW_PBE C 08Apr2002
   POMASS =   12.011; ZVAL   =    4.000    mass and valenz
   ENMAX  =  400.000; ENMIN  =  300.000 eV
   QCUT   =   -5.516; QGAM   =   11.032    optimization parameters

   Description
     l     E      TYP  RCUT    TYP  RCUT
     0   .000     23  1.200
     0   .000     23  1.200
     1   .000     23  1.500
     1  2.500     23  1.500
     2   .000      7  1.500

 PAW_PBE C 08Apr2002                    :

 POSCAR: C
  positions in direct lattice
 exchange correlation table for  LEXCH =        8
   RHO(1)=    0.500       N(1)  =     2000
   RHO(2)=  100.500       N(2)  =     4000

 ion  position               nearest neighbor table
   1  0.500  0.000  0.125-  18 1.42  19 1.42  20 1.42
   2  1.000  0.000  0.125-  20 1.42  17 1.42  19 1.42
   3  0.500  0.500  0.125-  20 1.42  18 1.42  17 1.43
   4  1.000  0.500  0.125-  17 1.42  19 1.42  18 1.42
   5  0.500  0.000  0.625-  22 1.42  23 1.42  24 1.42
   6  1.000  0.000  0.625-  21 1.42  24 1.42  23 1.42
   7  0.500  0.500  0.625-  24 1.42  21 1.42  22 1.42
   8  1.000  0.500  0.625-  23 1.42  22 1.42  21 1.42
   9  0.000  0.500  0.375-  27 1.42  26 1.42  28 1.42
  10  0.500  0.500  0.375-  28 1.42  25 1.42  27 1.42
  11  0.000  1.000  0.375-  25 1.42  28 1.42  26 1.42
  12  0.500  1.000  0.375-  26 1.42  27 1.42  25 1.42
  13  0.000  0.500  0.875-  31 1.42  30 1.42  32 1.42
  14  0.500  0.500  0.875-  32 1.42  29 1.42  31 1.42
  15  0.000  1.000  0.875-  29 1.42  32 1.42  30 1.42
  16  0.500  1.000  0.875-  30 1.42  31 1.42  29 1.42
  17  0.166  0.334  0.124-   4 1.42   2 1.42   3 1.43
  18  0.666  0.334  0.125-   1 1.42   4 1.42   3 1.42
  19  0.166  0.834  0.125-   4 1.42   1 1.42   2 1.42
  20  0.666  0.834  0.125-   3 1.42   2 1.42   1 1.42
  21  0.166  0.334  0.625-   6 1.42   7 1.42   8 1.42
  22  0.666  0.334  0.625-   5 1.42   8 1.42   7 1.42
  23  0.166  0.834  0.625-   8 1.42   5 1.42   6 1.42
  24  0.666  0.834  0.625-   7 1.42   6 1.42   5 1.42
  25  0.334  0.166  0.375-  11 1.42  10 1.42  12 1.42
  26  0.834  0.166  0.375-  12 1.42   9 1.42  11 1.42
  27  0.334  0.666  0.375-   9 1.42  12 1.42  10 1.42
  28  0.834  0.666  0.375-  10 1.42  11 1.42   9 1.42
  29  0.334  0.166  0.875-  15 1.42  14 1.42  16 1.42
  30  0.834  0.166  0.875-  16 1.42  13 1.42  15 1.42
  31  0.334  0.666  0.875-  13 1.42  16 1.42  14 1.42
  32  0.834  0.666  0.875-  14 1.42  15 1.42  13 1.42

  LATTYP: Found a base centered orthorhombic cell.
 ALAT       =     4.9295501972
 B/A-ratio  =     1.7336081796
 C/A-ratio  =     2.8520475462

  Lattice vectors:

 A1 = (   4.9328744980,  -0.0019192860,   0.0000000000)
 A2 = (  -2.4680993993,   4.2710349859,   0.0000000000)
 A3 = (   0.0000000000,   0.0000000000,  14.0593115437)

Analysis of symmetry for initial positions (statically):
 Subroutine PRICEL returns:
 Original cell was already a primitive cell.

 Routine SETGRP: Setting up the symmetry group for a
 base centered orthorhombic supercell.

 Subroutine GETGRP returns: Found  1 space group operations
 (whereof  1 operations were pure point group operations)
 out of a pool of  8 trial point group operations.

The static configuration has the point symmetry C_1 .

Analysis of symmetry for dynamics (positions and initial velocities):
 Subroutine PRICEL returns:
 Original cell was already a primitive cell.

 Routine SETGRP: Setting up the symmetry group for a
 base centered orthorhombic supercell.

 Subroutine GETGRP returns: Found  1 space group operations
 (whereof  1 operations were pure point group operations)
 out of a pool of  8 trial point group operations.

The dynamic configuration has the point symmetry C_1 .

 KPOINTS: B4C B11C-CBC

Automatic generation of k-mesh.
Space group operators:
 irot       det(A)        alpha          n_x          n_y          n_z        tau_x        tau_y        tau_z
    1     1.000000     0.000000     1.000000     0.000000     0.000000     0.000000     0.000000     0.000000

 Subroutine IBZKPT returns following result:

 Found     76 irreducible k-points:

 Following reciprocal coordinates:
            Coordinates               Weight
  0.000000  0.000000  0.000000      1.000000
  0.166667 -0.000000  0.000000      2.000000
  0.333333 -0.000000  0.000000      2.000000
  0.500000  0.000000  0.000000      1.000000
  0.000000  0.166667  0.000000      2.000000
  0.166667  0.166667  0.000000      2.000000
  0.333333  0.166667  0.000000      2.000000
  0.500000  0.166667  0.000000      2.000000
 -0.333333  0.166667  0.000000      2.000000
 -0.166667  0.166667  0.000000      2.000000
 -0.000000  0.333333  0.000000      2.000000
  0.166667  0.333333  0.000000      2.000000
  0.333333  0.333333  0.000000      2.000000
  0.500000  0.333333  0.000000      2.000000
 -0.333333  0.333333  0.000000      2.000000
 -0.166667  0.333333  0.000000      2.000000
  0.000000  0.500000  0.000000      1.000000
  0.166667  0.500000  0.000000      2.000000
  0.333333  0.500000  0.000000      2.000000
  0.500000  0.500000  0.000000      1.000000
  0.000000  0.000000  0.250000      2.000000
  0.166667 -0.000000  0.250000      2.000000
  0.333333 -0.000000  0.250000      2.000000
  0.500000  0.000000  0.250000      2.000000
 -0.333333  0.000000  0.250000      2.000000
 -0.166667  0.000000  0.250000      2.000000
  0.000000  0.166667  0.250000      2.000000
  0.166667  0.166667  0.250000      2.000000
  0.333333  0.166667  0.250000      2.000000
  0.500000  0.166667  0.250000      2.000000
 -0.333333  0.166667  0.250000      2.000000
 -0.166667  0.166667  0.250000      2.000000
 -0.000000  0.333333  0.250000      2.000000
  0.166667  0.333333  0.250000      2.000000
  0.333333  0.333333  0.250000      2.000000
  0.500000  0.333333  0.250000      2.000000
 -0.333333  0.333333  0.250000      2.000000
 -0.166667  0.333333  0.250000      2.000000
  0.000000  0.500000  0.250000      2.000000
  0.166667  0.500000  0.250000      2.000000
  0.333333  0.500000  0.250000      2.000000
  0.500000  0.500000  0.250000      2.000000
 -0.333333  0.500000  0.250000      2.000000
 -0.166667  0.500000  0.250000      2.000000
  0.000000 -0.333333  0.250000      2.000000
  0.166667 -0.333333  0.250000      2.000000
  0.333333 -0.333333  0.250000      2.000000
  0.500000 -0.333333  0.250000      2.000000
 -0.333333 -0.333333  0.250000      2.000000
 -0.166667 -0.333333  0.250000      2.000000
  0.000000 -0.166667  0.250000      2.000000
  0.166667 -0.166667  0.250000      2.000000
  0.333333 -0.166667  0.250000      2.000000
  0.500000 -0.166667  0.250000      2.000000
 -0.333333 -0.166667  0.250000      2.000000
 -0.166667 -0.166667  0.250000      2.000000
  0.000000  0.000000  0.500000      1.000000
  0.166667 -0.000000  0.500000      2.000000
  0.333333 -0.000000  0.500000      2.000000
  0.500000  0.000000  0.500000      1.000000
  0.000000  0.166667  0.500000      2.000000
  0.166667  0.166667  0.500000      2.000000
  0.333333  0.166667  0.500000      2.000000
  0.500000  0.166667  0.500000      2.000000
 -0.333333  0.166667  0.500000      2.000000
 -0.166667  0.166667  0.500000      2.000000
 -0.000000  0.333333  0.500000      2.000000
  0.166667  0.333333  0.500000      2.000000
  0.333333  0.333333  0.500000      2.000000
  0.500000  0.333333  0.500000      2.000000
 -0.333333  0.333333  0.500000      2.000000
 -0.166667  0.333333  0.500000      2.000000
  0.000000  0.500000  0.500000      1.000000
  0.166667  0.500000  0.500000      2.000000
  0.333333  0.500000  0.500000      2.000000
  0.500000  0.500000  0.500000      1.000000

 Following cartesian coordinates:
            Coordinates               Weight
  0.000000  0.000000  0.000000      1.000000
  0.033795  0.019529  0.000000      2.000000
  0.067589  0.039058  0.000000      2.000000
  0.101384  0.058586  0.000000      1.000000
  0.000015  0.039031  0.000000      2.000000
  0.033810  0.058560  0.000000      2.000000
  0.067604  0.078089  0.000000      2.000000
  0.101399  0.097618  0.000000      2.000000
 -0.067574 -0.000026  0.000000      2.000000
 -0.033779  0.019503  0.000000      2.000000
  0.000030  0.078063  0.000000      2.000000
  0.033825  0.097591  0.000000      2.000000
  0.067619  0.117120  0.000000      2.000000
  0.101414  0.136649  0.000000      2.000000
 -0.067559  0.039005  0.000000      2.000000
 -0.033764  0.058534  0.000000      2.000000
  0.000046  0.117094  0.000000      1.000000
  0.033840  0.136623  0.000000      2.000000
  0.067635  0.156152  0.000000      2.000000
  0.101429  0.175680  0.000000      1.000000
  0.000000  0.000000  0.017782      2.000000
  0.033795  0.019529  0.017782      2.000000
  0.067589  0.039058  0.017782      2.000000
  0.101384  0.058586  0.017782      2.000000
 -0.067589 -0.039058  0.017782      2.000000
 -0.033795 -0.019529  0.017782      2.000000
  0.000015  0.039031  0.017782      2.000000
  0.033810  0.058560  0.017782      2.000000
  0.067604  0.078089  0.017782      2.000000
  0.101399  0.097618  0.017782      2.000000
 -0.067574 -0.000026  0.017782      2.000000
 -0.033779  0.019503  0.017782      2.000000
  0.000030  0.078063  0.017782      2.000000
  0.033825  0.097591  0.017782      2.000000
  0.067619  0.117120  0.017782      2.000000
  0.101414  0.136649  0.017782      2.000000
 -0.067559  0.039005  0.017782      2.000000
 -0.033764  0.058534  0.017782      2.000000
  0.000046  0.117094  0.017782      2.000000
  0.033840  0.136623  0.017782      2.000000
  0.067635  0.156152  0.017782      2.000000
  0.101429  0.175680  0.017782      2.000000
 -0.067543  0.078036  0.017782      2.000000
 -0.033749  0.097565  0.017782      2.000000
 -0.000030 -0.078063  0.017782      2.000000
  0.033764 -0.058534  0.017782      2.000000
  0.067559 -0.039005  0.017782      2.000000
  0.101353 -0.019476  0.017782      2.000000
 -0.067619 -0.117120  0.017782      2.000000
 -0.033825 -0.097591  0.017782      2.000000
 -0.000015 -0.039031  0.017782      2.000000
  0.033779 -0.019503  0.017782      2.000000
  0.067574  0.000026  0.017782      2.000000
  0.101368  0.019555  0.017782      2.000000
 -0.067604 -0.078089  0.017782      2.000000
 -0.033810 -0.058560  0.017782      2.000000
  0.000000  0.000000  0.035564      1.000000
  0.033795  0.019529  0.035564      2.000000
  0.067589  0.039058  0.035564      2.000000
  0.101384  0.058586  0.035564      1.000000
  0.000015  0.039031  0.035564      2.000000
  0.033810  0.058560  0.035564      2.000000
  0.067604  0.078089  0.035564      2.000000
  0.101399  0.097618  0.035564      2.000000
 -0.067574 -0.000026  0.035564      2.000000
 -0.033779  0.019503  0.035564      2.000000
  0.000030  0.078063  0.035564      2.000000
  0.033825  0.097591  0.035564      2.000000
  0.067619  0.117120  0.035564      2.000000
  0.101414  0.136649  0.035564      2.000000
 -0.067559  0.039005  0.035564      2.000000
 -0.033764  0.058534  0.035564      2.000000
  0.000046  0.117094  0.035564      1.000000
  0.033840  0.136623  0.035564      2.000000
  0.067635  0.156152  0.035564      2.000000
[...]

[...]

 eigenvalue-minimisations  : 10128
 total energy-change (2. order) :-0.5693437E-09  (-0.3820416E-08)
 number of electron     128.0000011 magnetization
 augmentation part        3.0673109 magnetization

 Free energy of the ion-electron system (eV)
  alpha Z        PSCENC =       281.74243124
  Ewald energy   TEWEN  =     -3451.21660747
  -Hartree energ DENC   =     -1635.03709269
  -exchange      EXHF   =         0.00000000
  -V(xc)+E(xc)   XCENC  =       460.82662526
  PAW double counting   =      2221.93435406    -2263.25650485
  entropy T*S    EENTRO =         0.00000000
  eigenvalues    EBANDS =      -618.64577351
  atomic energy  EATOM  =      4708.80920826
  free energy    TOTEN  =      -294.84335969 eV

  energy without entropy =     -294.84335969  energy(sigma->0) =     -294.84335969

 average (electrostatic) potential at core
  the test charge radii are     0.6991
  (the norm of the test charge is              1.0000)
       1 -51.1314       2 -51.1314       3 -51.1312       4 -51.1316       5 -51.1314
       6 -51.1314       7 -51.1314       8 -51.1314       9 -51.1288      10 -51.1288
      11 -51.1288      12 -51.1287      13 -51.1288      14 -51.1288      15 -51.1288
      16 -51.1289      17 -51.1123      18 -51.1122      19 -51.1137      20 -51.1107
      21 -51.1123      22 -51.1123      23 -51.1123      24 -51.1123      25 -51.1120
      26 -51.1120      27 -51.1120      28 -51.1120      29 -51.1119      30 -51.1120
      31 -51.1120      32 -51.1119

 E-fermi :   4.2786     XC(G=0):  -9.9832     alpha+bet :-10.8478

 k-point     1 :       0.0000    0.0000    0.0000
  band No.  band energies     occupation
      1     -15.3143      2.00000
      2     -15.2138      2.00000
      3     -15.2125      2.00000
      4     -15.1070      2.00000
      5     -10.0156      2.00000
      6     -10.0072      2.00000
      7     -10.0042      2.00000
      8      -9.9763      2.00000
      9      -9.9756      2.00000
     10      -9.9684      2.00000
     11      -9.9641      2.00000
     12      -9.9641      2.00000
     13      -9.9630      2.00000
     14      -9.9406      2.00000
     15      -9.9301      2.00000
     16      -9.9277      2.00000
     17      -8.9524      2.00000
     18      -8.9486      2.00000
     19      -8.9469      2.00000
     20      -8.9305      2.00000
     21      -8.9262      2.00000
     22      -8.9248      2.00000
     23      -8.9232      2.00000
     24      -8.9232      2.00000
     25      -8.9209      2.00000
     26      -8.8951      2.00000
     27      -8.8905      2.00000
     28      -8.8881      2.00000
     29      -4.0407      2.00000
     30      -3.3385      2.00000
     31      -3.3368      2.00000
     32      -2.5000      2.00000
     33      -2.1257      2.00000
     34      -2.1228      2.00000
     35      -2.1101      2.00000
     36      -2.1061      2.00000
     37      -2.1053      2.00000
     38      -2.1053      2.00000
     39      -2.1029      2.00000
     40      -2.0899      2.00000
     41      -2.0884      2.00000
     42      -2.0865      2.00000
     43      -2.0846      2.00000
     44      -2.0682      2.00000
     45       1.2571      2.00000
     46       1.2671      2.00000
     47       1.2712      2.00000
     48       1.2752      2.00000
     49       1.2827      2.00000
     50       1.2877      2.00000
     51       1.2900      2.00000
     52       1.2989      2.00000
     53       1.6235      2.00000
     54       1.6243      2.00000
     55       1.6266      2.00000
     56       1.9208      2.00000
     57       1.9216      2.00000
     58       1.9240      2.00000
     59       1.9283      2.00000
     60       1.9283      2.00000
[...]
     70       5.9433      0.00000
     71       5.9446      0.00000
     72       5.9451      0.00000
     73       5.9497      0.00000
     74       6.3388      0.00000
     75       6.3516      0.00000
     76       6.3546      0.00000
     77       8.2319      0.00000
     78      10.5218      0.00000
     79      10.5243      0.00000
     80      11.5272      0.00000
     81      11.5309      0.00000
     82      11.5645      0.00000
     83      11.6666      0.00000
     84      11.6699      0.00000

[...]

 k-point    76 :       0.5000    0.5000    0.5000
  band No.  band energies     occupation
      1     -13.8163      2.00000
      2     -13.8135      2.00000
      3     -13.8135      2.00000
      4     -13.8109      2.00000
      5     -13.6833      2.00000
      6     -13.6806      2.00000
      7     -13.6806      2.00000
      8     -13.6779      2.00000
      9     -10.9764      2.00000
     10     -10.9748      2.00000
     11     -10.9748      2.00000
     12     -10.9730      2.00000
     13     -10.8702      2.00000
     14     -10.8687      2.00000
     15     -10.8686      2.00000
     16     -10.8668      2.00000
     17      -6.2389      2.00000
     18      -6.2389      2.00000
     19      -6.2387      2.00000
     20      -6.2351      2.00000
     21      -6.2039      2.00000
     22      -6.2039      2.00000
     23      -6.2036      2.00000
     24      -6.1993      2.00000
     25      -4.6581      2.00000
     26      -4.6550      2.00000
     27      -4.6538      2.00000
     28      -4.6538      2.00000
     29      -4.6306      2.00000
     30      -4.6285      2.00000
     31      -4.6276      2.00000
     32      -4.6276      2.00000
     33      -3.1515      2.00000
     34      -3.1455      2.00000
     35      -3.1455      2.00000
     36      -3.1450      2.00000
     37      -3.1040      2.00000
     38      -3.0995      2.00000
     39      -3.0995      2.00000
     40      -3.0990      2.00000
     41      -2.0883      2.00000
     42      -2.0863      2.00000
     43      -2.0862      2.00000
     44      -2.0835      2.00000
     45      -1.0832      2.00000
     46      -1.0811      2.00000
     47      -1.0809      2.00000
     48      -1.0780      2.00000
     49      -0.7334      2.00000
     50      -0.7317      2.00000
     51      -0.7317      2.00000
     52      -0.7260      2.00000
     53      -0.7117      2.00000
     54      -0.7104      2.00000
     55      -0.7103      2.00000
     56      -0.7003      2.00000
     57       1.1660      2.00000
     58       1.1690      2.00000
     59       1.1691      2.00000
     60       1.1703      2.00000
[...]
     70       7.2546      0.00000
     71       7.2546      0.00000
     72       7.2589      0.00000
     73      10.6123      0.00000
     74      10.6177      0.00000
     75      10.6178      0.00000
     76      10.6221      0.00000
     77      11.3830      0.00000
     78      11.3881      0.00000
     79      11.3893      0.00000
     80      11.3930      0.00000
     81      11.6671      0.00000
     82      11.6725      0.00000
     83      11.6731      0.00000
     84      11.6751      0.00000

 soft charge-density along one line, spin component           1
         0         1         2         3         4         5         6         7         8         9
 total charge-density along one line

------------------------ aborting loop because EDIFF is reached ----------------------------------------

         DFTD3 V3.0 Rev 1
 IVDW         = 12
 DF pbe
 parameters
 VDW_S6       =    1.0000
 VDW_S8       =    0.7875
 VDW_A1       =    0.4289
 VDW_A2       =    4.4407
 k1-k3        =   16.0000    1.3333   -4.0000
 VDW_RADIUS   =   50.2022 A
 VDW_CNRADIUS =   21.1671 A
 Edisp (eV)   -4.73048

 E6    (eV) :    -3.3982
 E8    (eV) :    -1.3322
 % E8        : 28.16

  FORCE on cell =-STRESS in cart. coord.  units (eV):
  Direction    XX          YY          ZZ          XY          YZ          ZX
  Alpha Z   281.74243   281.74243   281.74243
  Ewald     851.98764   851.51552 -5154.73838    -1.13516    -0.00060    -0.00673
  Hartree  1454.44377  1454.46304 -1273.86927    -0.08780    -0.00022    -0.00129
  E(xc)    -467.34456  -467.35099  -484.98294    -0.00851    -0.00003     0.00003
  Local   -3916.80101 -3916.46500  4547.77055     0.98999     0.00001     0.00712
  n-local  -112.48815  -112.60208  -102.57770    -0.10315    -0.00071     0.00084
  augment   -12.37341   -12.37246   -11.33920     0.00192     0.00001    -0.00001
  Kinetic  1921.46689  1922.21279  2200.95538     0.77827     0.00967    -0.01028
  Fock        0.00000     0.00000     0.00000     0.00000     0.00000     0.00000
  vdW        -0.80037    -0.79115    -5.69364     0.00833     0.00000    -0.00001
  Total      -0.16676     0.35210    -2.73276     0.44391     0.00814    -0.01033
  in kB      -0.90219     1.90495   -14.78470     2.40161     0.04402    -0.05587

 VOLUME and BASIS-vectors are now :
  energy-cutoff  :      600.00
  volume of cell :      296.14
      direct lattice vectors                 reciprocal lattice vectors
     4.932874498 -0.001919286  0.000000000     0.202767147  0.117172881  0.000000000
    -2.468099399  4.271034986  0.000000000     0.000091118  0.234187941  0.000000000
     0.000000000  0.000000000 14.059311544     0.000000000  0.000000000  0.071127238

  length of vectors
     4.932874871  4.932874871 14.059311544     0.234187958  0.234187958  0.071127238

 FORCES acting on ions
    electron-ion (+dipol)            ewald-force                    non-local-force                 convergence-correction
   -.324E-01 0.681E-01 -.324E+00   0.341E-01 -.624E-01 0.327E+00   -.284E-02 0.322E-02 -.780E-02   -.285E-05 0.136E-06 -.502E-02
   -.332E+00 0.598E-01 -.850E+00   0.331E+00 -.533E-01 0.887E+00   -.270E-01 0.300E-02 -.773E-01   0.267E-05 0.157E-05 -.502E-02
   0.215E+00 0.382E+00 -.846E+00   -.268E+00 -.407E+00 0.882E+00   -.185E-01 0.800E-02 -.769E-01   -.158E-05 -.384E-05 -.502E-02
   0.204E+00 -.242E+00 -.853E+00   -.256E+00 0.277E+00 0.891E+00   -.195E-01 -.114E-02 -.775E-01   -.647E-06 0.528E-06 -.502E-02
   -.122E+00 0.674E-01 0.897E-01   0.108E+00 -.622E-01 -.921E-01   -.715E-02 0.307E-02 0.251E-02   0.104E-04 0.252E-06 0.279E-02
   -.122E+00 0.674E-01 0.899E-01   0.108E+00 -.622E-01 -.923E-01   -.715E-02 0.307E-02 0.248E-02   0.972E-05 0.126E-05 0.279E-02
   -.122E+00 0.674E-01 0.899E-01   0.108E+00 -.622E-01 -.923E-01   -.715E-02 0.307E-02 0.247E-02   0.973E-05 0.228E-05 0.279E-02
   -.122E+00 0.674E-01 0.899E-01   0.108E+00 -.622E-01 -.923E-01   -.715E-02 0.307E-02 0.248E-02   0.106E-04 0.187E-05 0.279E-02
   0.104E+00 -.638E-01 0.903E-01   -.917E-01 0.546E-01 -.915E-01   0.627E-02 -.430E-02 -.292E-02   -.102E-03 0.244E-03 0.958E-03
   0.136E+00 -.605E-01 0.101E+00   -.124E+00 0.512E-01 -.103E+00   0.627E-02 -.428E-02 -.267E-02   -.102E-03 0.243E-03 0.958E-03
   0.117E+00 -.901E-01 0.956E-01   -.105E+00 0.808E-01 -.970E-01   0.625E-02 -.428E-02 -.279E-02   -.100E-03 0.243E-03 0.958E-03
   0.122E+00 -.714E-01 0.756E-01   -.110E+00 0.621E-01 -.771E-01   0.629E-02 -.428E-02 -.219E-02   -.103E-03 0.243E-03 0.959E-03
   0.134E+00 -.763E-01 0.101E+00   -.124E+00 0.734E-01 -.103E+00   0.554E-02 -.245E-02 -.269E-02   0.108E-03 -.250E-03 0.127E-02
   0.101E+00 -.728E-01 0.897E-01   -.915E-01 0.697E-01 -.912E-01   0.555E-02 -.242E-02 -.293E-02   0.107E-03 -.247E-03 0.128E-02
   0.114E+00 -.463E-01 0.953E-01   -.105E+00 0.433E-01 -.970E-01   0.551E-02 -.245E-02 -.281E-02   0.106E-03 -.250E-03 0.127E-02
   0.120E+00 -.651E-01 0.752E-01   -.110E+00 0.622E-01 -.770E-01   0.561E-02 -.246E-02 -.219E-02   0.108E-03 -.250E-03 0.127E-02
   -.617E+00 -.637E-01 0.186E+01   0.728E+00 0.582E-01 -.190E+01   0.924E-01 -.300E-02 0.181E+00   0.110E-04 -.469E-05 -.502E-02
   0.297E+00 -.669E-01 -.386E+00   -.317E+00 0.621E-01 0.374E+00   -.160E-01 -.292E-02 0.238E-01   -.356E-05 -.300E-05 -.501E-02
   0.129E+00 -.164E+00 -.386E+00   -.126E+00 0.172E+00 0.374E+00   -.556E-02 0.317E-02 0.239E-01   0.278E-05 0.207E-05 -.501E-02
   0.129E+00 0.301E-01 -.386E+00   -.125E+00 -.486E-01 0.375E+00   -.564E-02 -.881E-02 0.238E-01   0.424E-05 -.611E-05 -.501E-02
   0.121E+00 -.667E-01 0.901E-01   -.107E+00 0.620E-01 -.926E-01   0.667E-02 -.283E-02 -.733E-03   -.945E-05 0.446E-06 0.280E-02
   0.121E+00 -.667E-01 0.896E-01   -.107E+00 0.620E-01 -.921E-01   0.667E-02 -.283E-02 -.592E-03   -.865E-05 0.942E-07 0.280E-02
   0.121E+00 -.668E-01 0.896E-01   -.107E+00 0.620E-01 -.921E-01   0.667E-02 -.283E-02 -.592E-03   -.823E-05 -.105E-05 0.280E-02
   0.121E+00 -.667E-01 0.896E-01   -.107E+00 0.620E-01 -.921E-01   0.667E-02 -.283E-02 -.591E-03   -.964E-05 -.575E-06 0.280E-02
   -.102E+00 0.596E-01 0.101E+00   0.911E-01 -.509E-01 -.102E+00   -.604E-02 0.405E-02 0.683E-03   0.129E-03 -.248E-03 0.946E-03
   -.135E+00 0.629E-01 0.903E-01   0.123E+00 -.544E-01 -.915E-01   -.579E-02 0.412E-02 0.427E-03   0.129E-03 -.245E-03 0.946E-03
   -.122E+00 0.897E-01 0.959E-01   0.110E+00 -.807E-01 -.972E-01   -.597E-02 0.387E-02 0.579E-03   0.126E-03 -.249E-03 0.946E-03
   -.116E+00 0.707E-01 0.760E-01   0.105E+00 -.620E-01 -.772E-01   -.584E-02 0.402E-02 0.563E-03   0.132E-03 -.249E-03 0.947E-03
   -.132E+00 0.720E-01 0.896E-01   0.123E+00 -.696E-01 -.911E-01   -.470E-02 0.200E-02 0.343E-03   -.137E-03 0.252E-03 0.126E-02
   -.986E-01 0.756E-01 0.101E+00   0.909E-01 -.733E-01 -.103E+00   -.495E-02 0.207E-02 0.755E-03   -.138E-03 0.260E-03 0.126E-02
   -.118E+00 0.450E-01 0.956E-01   0.110E+00 -.431E-01 -.972E-01   -.488E-02 0.225E-02 0.587E-03   -.144E-03 0.254E-03 0.126E-02
   -.113E+00 0.642E-01 0.755E-01   0.105E+00 -.619E-01 -.770E-01   -.473E-02 0.210E-02 0.588E-03   -.132E-03 0.254E-03 0.126E-02
   0.113E-03 -.488E-04 -.333E-02   0.573E-14 0.327E-13 -.711E-13   -.131E-03 0.484E-04 0.337E-02   0.482E-05 -.376E-05 -.170E-04

 POSITION                                       TOTAL-FORCE (eV/Angst)
      2.46402      0.00044      1.75741        -0.001295      0.008920     -0.009417
      4.93046     -0.00052      1.75741        -0.027436      0.009595     -0.045070
      1.22997      2.13595      1.75741        -0.071371     -0.016344     -0.045437
      3.69641      2.13499      1.75741        -0.071377      0.034303     -0.044635
      2.46402      0.00044      8.78707        -0.021949      0.008313      0.002908
      4.93046     -0.00052      8.78707        -0.021949      0.008313      0.002901
      1.22997      2.13595      8.78707        -0.021951      0.008312      0.002895
      3.69641      2.13499      8.78707        -0.021952      0.008315      0.002903
     -1.23163      2.13412      5.27224         0.018492     -0.013373     -0.003144
      1.23481      2.13316      5.27224         0.018419     -0.013399     -0.003232
     -2.46568      4.26964      5.27224         0.018474     -0.013359     -0.003179
      0.00076      4.26868      5.27224         0.018392     -0.013381     -0.002730
     -1.23163      2.13412     12.30190         0.015297     -0.005624     -0.003242
      1.23481      2.13316     12.30190         0.015368     -0.005763     -0.003152
     -2.46568      4.26964     12.30190         0.015448     -0.005702     -0.003196
      0.00076      4.26868     12.30190         0.015284     -0.005689     -0.002732
     -0.00663      1.42496      1.74798         0.204414     -0.008578      0.134986
      2.46311      1.42400      1.75741        -0.036846     -0.007726      0.007225
     -1.23737      3.56047      1.75741        -0.002209      0.012317      0.007153
      1.22906      3.55952      1.75741        -0.002103     -0.027856      0.007396
     -0.00332      1.42496      8.78707         0.020504     -0.007580     -0.000456
      2.46311      1.42400      8.78707         0.020504     -0.007579     -0.000335
     -1.23737      3.56047      8.78707         0.020503     -0.007581     -0.000335
      1.22906      3.55952      8.78707         0.020502     -0.007579     -0.000336
      1.23571      0.70960      5.27224        -0.017163      0.012464      0.000247
      3.70215      0.70864      5.27224        -0.017438      0.012465      0.000214
      0.00166      2.84512      5.27224        -0.017304      0.012702      0.000252
      2.46810      2.84416      5.27224        -0.017334      0.012557      0.000393
      1.23571      0.70960     12.30190        -0.013139      0.004733      0.000144
      3.70215      0.70864     12.30190        -0.012848      0.004700      0.000320
      0.00166      2.84512     12.30190        -0.012969      0.004481      0.000268
      2.46810      2.84416     12.30190        -0.012967      0.004623      0.000422
    total drift:                               -0.000013     -0.000004      0.000018

  FREE ENERGIE OF THE ION-ELECTRON SYSTEM (eV)
  free  energy   TOTEN  =      -299.57383697 eV

  energy  without entropy=     -299.57383697  energy(sigma->0) =     -299.57383697

 BZINTS: Fermi energy:  4.278643;128.000000 electrons
         Band energy:-618.645774;  BLOECHL correction:  0.000000