 vasp.5.3.5 31Mar14 (build Nov 02 2014 15:17:37) complex

 executed on        ion-Intel-MKL date 2016.08.13  18:29:26

 INCAR:
 POTCAR:   PAW_PBE C 08Apr2002

 POTCAR:   PAW_PBE C 08Apr2002
   VRHFIN =C: s2p2

   TITEL  = PAW_PBE C 08Apr2002
   POMASS =   12.011; ZVAL   =    4.000    mass and valenz
   ENMAX  =  400.000; ENMIN  =  300.000 eV
   QCUT   =   -5.516; QGAM   =   11.032    optimization parameters

   Description
     l     E      TYP  RCUT    TYP  RCUT
     0   .000     23  1.200
     0   .000     23  1.200
     1   .000     23  1.500
     1  2.500     23  1.500
     2   .000      7  1.500

 PAW_PBE C 08Apr2002                    :

 POSCAR: C
  positions in direct lattice
 exchange correlation table for  LEXCH =        8
   RHO(1)=    0.500       N(1)  =     2000
   RHO(2)=  100.500       N(2)  =     4000

 ion  position               nearest neighbor table
   1  0.500  0.000  0.125-  20 1.42  18 1.42  19 1.42
   2  1.000  0.000  0.125-  19 1.42  20 1.42  17 1.42
   3  0.500  0.500  0.125-  18 1.42  20 1.42  17 1.43
   4  1.000  0.500  0.125-  17 1.42  19 1.42  18 1.42
   5  0.500  0.000  0.625-  24 1.42  22 1.42  23 1.42
   6  1.000  0.000  0.625-  23 1.42  21 1.42  24 1.42
   7  0.500  0.500  0.625-  22 1.42  24 1.42  21 1.42
   8  1.000  0.500  0.625-  21 1.42  23 1.42  22 1.42
   9  0.000  0.500  0.375-  28 1.42  27 1.42  26 1.42
  10  0.500  0.500  0.375-  27 1.42  28 1.42  25 1.42
  11  0.000  1.000  0.375-  26 1.42  25 1.42  28 1.42
  12  0.500  1.000  0.375-  25 1.42  26 1.42  27 1.42
  13  0.000  0.500  0.875-  32 1.42  31 1.42  30 1.42
  14  0.500  0.500  0.875-  31 1.42  32 1.42  29 1.42
  15  0.000  1.000  0.875-  30 1.42  29 1.42  32 1.42
  16  0.500  1.000  0.875-  29 1.42  30 1.42  31 1.42
  17  0.166  0.333  0.124-   4 1.42   2 1.42   3 1.43
  18  0.667  0.333  0.125-   3 1.42   1 1.42   4 1.42
  19  0.167  0.833  0.125-   2 1.42   4 1.42   1 1.42
  20  0.667  0.833  0.125-   1 1.42   3 1.42   2 1.42
  21  0.167  0.333  0.625-   8 1.42   6 1.42   7 1.42
  22  0.667  0.333  0.625-   7 1.42   5 1.42   8 1.42
  23  0.167  0.833  0.625-   6 1.42   8 1.42   5 1.42
  24  0.667  0.833  0.625-   5 1.42   7 1.42   6 1.42
  25  0.333  0.167  0.375-  12 1.42  11 1.42  10 1.42
  26  0.833  0.167  0.375-  11 1.42  12 1.42   9 1.42
  27  0.333  0.667  0.375-  10 1.42   9 1.42  12 1.42
  28  0.833  0.667  0.375-   9 1.42  10 1.42  11 1.42
  29  0.333  0.167  0.875-  16 1.42  15 1.42  14 1.42
  30  0.833  0.167  0.875-  15 1.42  16 1.42  13 1.42
  31  0.333  0.667  0.875-  14 1.42  13 1.42  16 1.42
  32  0.833  0.667  0.875-  13 1.42  14 1.42  15 1.42

  LATTYP: Found a base centered orthorhombic cell.
 ALAT       =     4.9339256766
 B/A-ratio  =     1.7322311103
 C/A-ratio  =     2.8626411871

  Lattice vectors:

 A1 = (   4.9343108848,  -0.0002224000,   0.0000000000)
 A2 = (  -2.4673480464,   4.2731273763,   0.0000000000)
 A3 = (   0.0000000000,   0.0000000000,  14.1240588560)

Analysis of symmetry for initial positions (statically):
 Subroutine PRICEL returns:
 Original cell was already a primitive cell.

 Routine SETGRP: Setting up the symmetry group for a
 base centered orthorhombic supercell.

 Subroutine GETGRP returns: Found  1 space group operations
 (whereof  1 operations were pure point group operations)
 out of a pool of  8 trial point group operations.

The static configuration has the point symmetry C_1 .

Analysis of symmetry for dynamics (positions and initial velocities):
 Subroutine PRICEL returns:
 Original cell was already a primitive cell.

 Routine SETGRP: Setting up the symmetry group for a
 base centered orthorhombic supercell.

 Subroutine GETGRP returns: Found  1 space group operations
 (whereof  1 operations were pure point group operations)
 out of a pool of  8 trial point group operations.

The dynamic configuration has the point symmetry C_1 .

 KPOINTS: B4C B11C-CBC

Automatic generation of k-mesh.
Space group operators:
 irot       det(A)        alpha          n_x          n_y          n_z        tau_x        tau_y        tau_z
    1     1.000000     0.000000     1.000000     0.000000     0.000000     0.000000     0.000000     0.000000

 Subroutine IBZKPT returns following result:

 Found    163 irreducible k-points:

 Following reciprocal coordinates:
            Coordinates               Weight
  0.000000  0.000000  0.000000      1.000000
  0.111111  0.000000  0.000000      2.000000
  0.222222 -0.000000  0.000000      2.000000
  0.333333  0.000000  0.000000      2.000000
  0.444444 -0.000000  0.000000      2.000000
  0.000000  0.111111  0.000000      2.000000
  0.111111  0.111111  0.000000      2.000000
  0.222222  0.111111  0.000000      2.000000
  0.333333  0.111111  0.000000      2.000000
  0.444444  0.111111  0.000000      2.000000
 -0.444444  0.111111  0.000000      2.000000
 -0.333333  0.111111  0.000000      2.000000
 -0.222222  0.111111  0.000000      2.000000
 -0.111111  0.111111  0.000000      2.000000
 -0.000000  0.222222  0.000000      2.000000
  0.111111  0.222222  0.000000      2.000000
  0.222222  0.222222  0.000000      2.000000
  0.333333  0.222222  0.000000      2.000000
  0.444444  0.222222  0.000000      2.000000
 -0.444444  0.222222  0.000000      2.000000
 -0.333333  0.222222  0.000000      2.000000
 -0.222222  0.222222  0.000000      2.000000
 -0.111111  0.222222  0.000000      2.000000
  0.000000  0.333333  0.000000      2.000000
  0.111111  0.333333  0.000000      2.000000
  0.222222  0.333333  0.000000      2.000000
  0.333333  0.333333  0.000000      2.000000
  0.444444  0.333333  0.000000      2.000000
 -0.444444  0.333333  0.000000      2.000000
 -0.333333  0.333333  0.000000      2.000000
 -0.222222  0.333333  0.000000      2.000000
 -0.111111  0.333333  0.000000      2.000000
 -0.000000  0.444444  0.000000      2.000000
  0.111111  0.444444  0.000000      2.000000
  0.222222  0.444444  0.000000      2.000000
  0.333333  0.444444  0.000000      2.000000
  0.444444  0.444444  0.000000      2.000000
 -0.444444  0.444444  0.000000      2.000000
 -0.333333  0.444444  0.000000      2.000000
 -0.222222  0.444444  0.000000      2.000000
 -0.111111  0.444444  0.000000      2.000000
  0.000000  0.000000  0.250000      2.000000
  0.111111  0.000000  0.250000      2.000000
  0.222222 -0.000000  0.250000      2.000000
  0.333333  0.000000  0.250000      2.000000
  0.444444 -0.000000  0.250000      2.000000
 -0.444444  0.000000  0.250000      2.000000
 -0.333333 -0.000000  0.250000      2.000000
 -0.222222  0.000000  0.250000      2.000000
 -0.111111  0.000000  0.250000      2.000000
  0.000000  0.111111  0.250000      2.000000
  0.111111  0.111111  0.250000      2.000000
  0.222222  0.111111  0.250000      2.000000
  0.333333  0.111111  0.250000      2.000000
  0.444444  0.111111  0.250000      2.000000
 -0.444444  0.111111  0.250000      2.000000
 -0.333333  0.111111  0.250000      2.000000
 -0.222222  0.111111  0.250000      2.000000
 -0.111111  0.111111  0.250000      2.000000
 -0.000000  0.222222  0.250000      2.000000
[...]
  0.333333  0.333333  0.500000      2.000000
  0.444444  0.333333  0.500000      2.000000
 -0.444444  0.333333  0.500000      2.000000
 -0.333333  0.333333  0.500000      2.000000
 -0.222222  0.333333  0.500000      2.000000
 -0.111111  0.333333  0.500000      2.000000
 -0.000000  0.444444  0.500000      2.000000
  0.111111  0.444444  0.500000      2.000000
  0.222222  0.444444  0.500000      2.000000
  0.333333  0.444444  0.500000      2.000000
  0.444444  0.444444  0.500000      2.000000
 -0.444444  0.444444  0.500000      2.000000
 -0.333333  0.444444  0.500000      2.000000
 -0.222222  0.444444  0.500000      2.000000
 -0.111111  0.444444  0.500000      2.000000

 Following cartesian coordinates:
            Coordinates               Weight
  0.000000  0.000000  0.000000      1.000000
  0.022519  0.013002  0.000000      2.000000
  0.045037  0.026005  0.000000      2.000000
  0.067556  0.039007  0.000000      2.000000
  0.090075  0.052010  0.000000      2.000000
  0.000001  0.026003  0.000000      2.000000
  0.022520  0.039005  0.000000      2.000000
  0.045038  0.052008  0.000000      2.000000
  0.067557  0.065010  0.000000      2.000000
  0.090076  0.078013  0.000000      2.000000
 -0.090073 -0.026007  0.000000      2.000000
 -0.067555 -0.013005  0.000000      2.000000
 -0.045036 -0.000002  0.000000      2.000000
 -0.022517  0.013000  0.000000      2.000000
  0.000002  0.052006  0.000000      2.000000
  0.022521  0.065008  0.000000      2.000000
  0.045040  0.078011  0.000000      2.000000
  0.067558  0.091013  0.000000      2.000000
  0.090077  0.104016  0.000000      2.000000
 -0.090072 -0.000004  0.000000      2.000000
 -0.067554  0.012998  0.000000      2.000000
 -0.045035  0.026001  0.000000      2.000000
 -0.022516  0.039003  0.000000      2.000000
  0.000004  0.078009  0.000000      2.000000
  0.022522  0.091011  0.000000      2.000000
  0.045041  0.104014  0.000000      2.000000
  0.067559  0.117016  0.000000      2.000000
  0.090078  0.130019  0.000000      2.000000
 -0.090071  0.025999  0.000000      2.000000
 -0.067552  0.039001  0.000000      2.000000
 -0.045034  0.052004  0.000000      2.000000
 -0.022515  0.065006  0.000000      2.000000
  0.000005  0.104012  0.000000      2.000000
  0.022523  0.117014  0.000000      2.000000
  0.045042  0.130017  0.000000      2.000000
  0.067561  0.143019  0.000000      2.000000
  0.090079  0.156022  0.000000      2.000000
 -0.090070  0.052002  0.000000      2.000000
 -0.067551  0.065004  0.000000      2.000000
 -0.045033  0.078007  0.000000      2.000000
 -0.022514  0.091009  0.000000      2.000000
  0.000000  0.000000  0.017700      2.000000
  0.022519  0.013002  0.017700      2.000000
  0.045037  0.026005  0.017700      2.000000
  0.067556  0.039007  0.017700      2.000000
  0.090075  0.052010  0.017700      2.000000
 -0.090075 -0.052010  0.017700      2.000000
 -0.067556 -0.039007  0.017700      2.000000
 -0.045037 -0.026005  0.017700      2.000000
 -0.022519 -0.013002  0.017700      2.000000
  0.000001  0.026003  0.017700      2.000000
  0.022520  0.039005  0.017700      2.000000
  0.045038  0.052008  0.017700      2.000000
  0.067557  0.065010  0.017700      2.000000
  0.090076  0.078013  0.017700      2.000000
 -0.090073 -0.026007  0.017700      2.000000
 -0.067555 -0.013005  0.017700      2.000000
 -0.045036 -0.000002  0.017700      2.000000
 -0.022517  0.013000  0.017700      2.000000
  0.000002  0.052006  0.017700      2.000000
[...]
  0.067559  0.117016  0.035401      2.000000
  0.090078  0.130019  0.035401      2.000000
 -0.090071  0.025999  0.035401      2.000000
 -0.067552  0.039001  0.035401      2.000000
 -0.045034  0.052004  0.035401      2.000000
 -0.022515  0.065006  0.035401      2.000000
  0.000005  0.104012  0.035401      2.000000
  0.022523  0.117014  0.035401      2.000000
  0.045042  0.130017  0.035401      2.000000
  0.067561  0.143019  0.035401      2.000000
  0.090079  0.156022  0.035401      2.000000
 -0.090070  0.052002  0.035401      2.000000
 -0.067551  0.065004  0.035401      2.000000
 -0.045033  0.078007  0.035401      2.000000
 -0.022514  0.091009  0.035401      2.000000

[...]

[...]

 eigenvalue-minimisations  : 18936
 total energy-change (2. order) :-0.1683175E-06  (-0.1028890E-06)
 number of electron     127.9999996 magnetization
 augmentation part        3.0637527 magnetization

 Free energy of the ion-electron system (eV)
  alpha Z        PSCENC =       280.17623040
  Ewald energy   TEWEN  =     -3428.33297230
  -Hartree energ DENC   =     -1650.88206735
  -exchange      EXHF   =         0.00000000
  -V(xc)+E(xc)   XCENC  =       460.66066365
  PAW double counting   =      2218.73958783    -2260.04624649
  entropy T*S    EENTRO =         0.00000000
  eigenvalues    EBANDS =      -624.03874363
  atomic energy  EATOM  =      4708.80920826
  free energy    TOTEN  =      -294.91433963 eV

  energy without entropy =     -294.91433963  energy(sigma->0) =     -294.91433963

 average (electrostatic) potential at core
  the test charge radii are     0.6991
  (the norm of the test charge is              1.0000)
       1 -51.1806       2 -51.1806       3 -51.1804       4 -51.1808       5 -51.1805
       6 -51.1805       7 -51.1805       8 -51.1805       9 -51.1799      10 -51.1799
      11 -51.1799      12 -51.1798      13 -51.1793      14 -51.1793      15 -51.1793
      16 -51.1794      17 -51.1625      18 -51.1624      19 -51.1639      20 -51.1609
      21 -51.1624      22 -51.1624      23 -51.1624      24 -51.1624      25 -51.1618
      26 -51.1618      27 -51.1618      28 -51.1618      29 -51.1612      30 -51.1612
      31 -51.1612      32 -51.1612

 E-fermi :   4.2334     XC(G=0):  -9.9486     alpha+bet :-10.7875

 k-point     1 :       0.0000    0.0000    0.0000
  band No.  band energies     occupation
      1     -15.3462      2.00000
      2     -15.2489      2.00000
      3     -15.2481      2.00000
      4     -15.1462      2.00000
      5     -10.0516      2.00000
      6     -10.0494      2.00000
      7     -10.0475      2.00000
      8     -10.0149      2.00000
      9     -10.0112      2.00000
     10     -10.0109      2.00000
     11     -10.0101      2.00000
     12     -10.0101      2.00000
     13     -10.0073      2.00000
     14      -9.9778      2.00000
     15      -9.9765      2.00000
     16      -9.9744      2.00000
     17      -8.9892      2.00000
     18      -8.9859      2.00000
     19      -8.9843      2.00000
     20      -8.9674      2.00000
     21      -8.9633      2.00000
     22      -8.9627      2.00000
     23      -8.9618      2.00000
     24      -8.9618      2.00000
     25      -8.9589      2.00000
     26      -8.9331      2.00000
     27      -8.9303      2.00000
     28      -8.9279      2.00000
     29      -4.0616      2.00000
     30      -3.3753      2.00000
     31      -3.3738      2.00000
     32      -2.5580      2.00000
     33      -2.1631      2.00000
     34      -2.1603      2.00000
     35      -2.1564      2.00000
     36      -2.1479      2.00000
     37      -2.1439      2.00000
     38      -2.1437      2.00000
     39      -2.1437      2.00000
     40      -2.1405      2.00000
     41      -2.1384      2.00000
     42      -2.1287      2.00000
     43      -2.1269      2.00000
     44      -2.1223      2.00000
     45       1.2147      2.00000
     46       1.2251      2.00000
     47       1.2288      2.00000
     48       1.2291      2.00000
     49       1.2326      2.00000
     50       1.2336      2.00000
     51       1.2362      2.00000
     52       1.2457      2.00000
     53       1.5876      2.00000
     54       1.5897      2.00000
     55       1.5915      2.00000
     56       1.8775      2.00000
     57       1.8812      2.00000
     58       1.8817      2.00000
     59       1.8817      2.00000
     60       1.8818      2.00000
[...]
     70       5.8958      0.00000
     71       5.8966      0.00000
     72       5.8969      0.00000
     73       5.9019      0.00000
     74       6.2867      0.00000
     75       6.2913      0.00000
     76       6.2941      0.00000
     77       8.1600      0.00000
     78      10.4181      0.00000
     79      10.4209      0.00000
     80      11.4801      0.00000
     81      11.4838      0.00000
     82      11.4881      0.00000
     83      11.6146      0.00000
     84      11.6175      0.00000

[...]

 k-point   163 :      -0.1111    0.4444    0.5000
  band No.  band energies     occupation
      1     -14.3702      2.00000
      2     -14.3702      2.00000
      3     -14.2377      2.00000
      4     -14.2373      2.00000
      5     -13.0770      2.00000
      6     -13.0769      2.00000
      7     -12.9560      2.00000
      8     -12.9556      2.00000
      9     -11.8166      2.00000
     10     -11.8165      2.00000
     11     -11.7070      2.00000
     12     -11.7066      2.00000
     13     -10.0296      2.00000
     14     -10.0294      2.00000
     15      -9.9399      2.00000
     16      -9.9394      2.00000
     17      -7.5477      2.00000
     18      -7.5460      2.00000
     19      -7.4860      2.00000
     20      -7.4843      2.00000
     21      -5.8911      2.00000
     22      -5.8896      2.00000
     23      -5.8363      2.00000
     24      -5.8349      2.00000
     25      -4.8950      2.00000
     26      -4.8934      2.00000
     27      -4.8506      2.00000
     28      -4.8491      2.00000
     29      -4.6403      2.00000
     30      -4.6398      2.00000
     31      -4.5864      2.00000
     32      -4.5859      2.00000
     33      -3.4538      2.00000
     34      -3.4521      2.00000
     35      -3.4180      2.00000
     36      -3.4161      2.00000
     37      -2.7334      2.00000
     38      -2.7327      2.00000
     39      -1.7914      2.00000
     40      -1.7898      2.00000
     41      -1.7599      2.00000
     42      -1.7584      2.00000
     43      -1.7225      2.00000
     44      -1.7216      2.00000
     45      -1.5351      2.00000
     46      -1.5348      2.00000
     47      -1.5112      2.00000
     48      -1.5108      2.00000
     49      -1.2151      2.00000
     50      -1.2146      2.00000
     51      -0.4075      2.00000
     52      -0.4060      2.00000
     53      -0.3892      2.00000
     54      -0.3876      2.00000
     55      -0.2840      2.00000
     56      -0.2829      2.00000
     57       0.2302      2.00000
     58       0.2308      2.00000
     59       1.0654      2.00000
     60       1.0665      2.00000
[...]
     70       7.8220      0.00000
     71       8.1816      0.00000
     72       8.1829      0.00000
     73       9.6541      0.00000
     74       9.6565      0.00000
     75       9.9374      0.00000
     76       9.9393      0.00000
     77      10.0686      0.00000
     78      10.0708      0.00000
     79      11.5160      0.00000
     80      11.5192      0.00000
     81      12.3014      0.00000
     82      12.3022      0.00000
     83      12.5184      0.00000
     84      12.5198      0.00000

 soft charge-density along one line, spin component           1
         0         1         2         3         4         5         6         7         8         9
 total charge-density along one line

------------------------ aborting loop because EDIFF is reached ----------------------------------------

         DFTD3 V3.0 Rev 1
 IVDW         = 11
 DF pbe
 parameters
 VDW_S6       =    1.0000
 VDW_S8       =    0.7220
 VDW_SR       =    1.2170
 rs18     =    1.0000
 alpha6   =   14.0000
 alpha8   =   16.0000
 k1-k3    =   16.0000    1.3333   -4.0000
 VDW_RADIUS   =   50.2022 A
 VDW_CNRADIUS =   21.1671 A
 Edisp (eV)   -2.85476

 E6    (eV) :    -1.8497
 E8    (eV) :    -1.0051
 % E8        : 35.21

  FORCE on cell =-STRESS in cart. coord.  units (eV):
  Direction    XX          YY          ZZ          XY          YZ          ZX
  Alpha Z   280.17623   280.17623   280.17623
  Ewald     872.69539   872.29717 -5173.34411    -1.06820     0.00005    -0.00781
  Hartree  1470.13584  1470.08920 -1289.33992    -0.14469    -0.00001    -0.00167
  E(xc)    -467.18658  -467.18871  -484.86271    -0.00465    -0.00001     0.00002
  Local   -3951.97994 -3951.61080  4583.73974     1.01683     0.00000     0.00752
  n-local  -112.34115  -112.35626  -102.45738    -0.01792     0.00001    -0.00012
  augment   -12.34872   -12.34804   -11.32229     0.00171    -0.00000     0.00002
  Kinetic  1920.54823  1920.69933  2200.31898     0.25937    -0.00006     0.00325
  Fock        0.00000     0.00000     0.00000     0.00000     0.00000     0.00000
  vdW        -0.55778    -0.55724    -4.13835     0.00064     0.00000    -0.00001
  Total      -0.85849    -0.79912    -1.22982     0.04309    -0.00002     0.00120
  in kB      -4.61878    -4.29933    -6.61657     0.23181    -0.00011     0.00643

 VOLUME and BASIS-vectors are now :
  energy-cutoff  :      600.00
  volume of cell :      297.80
      direct lattice vectors                 reciprocal lattice vectors
     4.934310885 -0.000222400  0.000000000     0.202667819  0.117022500  0.000000000
    -2.467348046  4.273127376  0.000000000     0.000010548  0.234026730  0.000000000
     0.000000000  0.000000000 14.124058856     0.000000000  0.000000000  0.070801178

  length of vectors
     4.934310890  4.934310890 14.124058856     0.234026730  0.234026730  0.070801178

 FORCES acting on ions
    electron-ion (+dipol)            ewald-force                    non-local-force                 convergence-correction
   0.745E-01 0.587E-03 -.312E+00   -.759E-01 0.130E-02 0.327E+00   -.220E-02 0.114E-02 -.949E-02   0.269E-03 0.364E-04 -.174E-01
   -.223E+00 -.709E-02 -.837E+00   0.220E+00 0.988E-02 0.886E+00   -.262E-01 0.868E-03 -.790E-01   0.327E-03 0.303E-04 -.173E-01
   0.320E+00 0.313E+00 -.833E+00   -.376E+00 -.341E+00 0.882E+00   -.177E-01 0.598E-02 -.788E-01   0.253E-03 -.141E-04 -.173E-01
   0.310E+00 -.308E+00 -.841E+00   -.364E+00 0.340E+00 0.891E+00   -.187E-01 -.323E-02 -.793E-01   0.257E-03 0.797E-04 -.173E-01
   0.311E-02 0.351E-03 0.754E-01   -.269E-02 0.152E-02 -.916E-01   -.118E-02 0.114E-02 0.771E-03   -.145E-02 0.498E-04 0.164E-01
   0.305E-02 0.353E-03 0.756E-01   -.263E-02 0.152E-02 -.918E-01   -.118E-02 0.114E-02 0.743E-03   -.145E-02 0.520E-04 0.164E-01
   0.309E-02 0.390E-03 0.756E-01   -.266E-02 0.150E-02 -.918E-01   -.118E-02 0.114E-02 0.742E-03   -.146E-02 0.272E-04 0.164E-01
   0.308E-02 0.343E-03 0.756E-01   -.266E-02 0.154E-02 -.918E-01   -.118E-02 0.114E-02 0.746E-03   -.145E-02 0.383E-04 0.164E-01
   -.148E-01 0.695E-02 0.103E+00   0.183E-01 -.895E-02 -.910E-01   0.199E-02 -.119E-02 -.125E-02   -.202E-04 -.507E-05 -.121E-01
   0.167E-01 0.103E-01 0.114E+00   -.133E-01 -.124E-01 -.102E+00   0.198E-02 -.116E-02 -.995E-03   0.792E-05 -.420E-04 -.121E-01
   -.194E-02 -.187E-01 0.108E+00   0.542E-02 0.167E-01 -.965E-01   0.196E-02 -.117E-02 -.112E-02   0.298E-04 0.352E-05 -.121E-01
   0.330E-02 -.489E-03 0.888E-01   0.878E-04 -.155E-02 -.770E-01   0.203E-02 -.118E-02 -.539E-03   -.365E-04 0.843E-05 -.120E-01
   0.172E-01 -.114E-01 0.888E-01   -.135E-01 0.945E-02 -.102E+00   0.207E-02 -.116E-02 -.964E-03   -.866E-04 0.475E-04 0.131E-01
   -.147E-01 -.796E-02 0.779E-01   0.185E-01 0.594E-02 -.909E-01   0.208E-02 -.113E-02 -.122E-02   -.414E-04 0.383E-04 0.131E-01
   -.169E-02 0.180E-01 0.833E-01   0.551E-02 -.200E-01 -.965E-01   0.205E-02 -.115E-02 -.109E-02   -.543E-04 0.344E-05 0.131E-01
   0.362E-02 -.420E-03 0.634E-01   0.102E-04 -.155E-02 -.768E-01   0.213E-02 -.115E-02 -.496E-03   -.742E-04 0.314E-04 0.131E-01
   -.720E+00 0.251E-02 0.188E+01   0.833E+00 -.503E-02 -.191E+01   0.916E-01 -.127E-02 0.182E+00   -.129E-03 -.433E-04 -.179E-01
   0.190E+00 -.150E-03 -.374E+00   -.206E+00 -.152E-02 0.374E+00   -.160E-01 -.118E-02 0.243E-01   -.269E-03 -.532E-04 -.174E-01
   0.228E-01 -.967E-01 -.374E+00   -.153E-01 0.108E+00 0.374E+00   -.568E-02 0.487E-02 0.244E-01   -.218E-03 -.215E-04 -.174E-01
   0.229E-01 0.961E-01 -.374E+00   -.153E-01 -.111E+00 0.374E+00   -.577E-02 -.702E-02 0.243E-01   -.221E-03 -.667E-04 -.174E-01
   -.343E-02 -.190E-03 0.759E-01   0.274E-02 -.153E-02 -.921E-01   0.111E-02 -.109E-02 -.327E-03   0.152E-02 -.753E-04 0.164E-01
   -.329E-02 -.176E-03 0.754E-01   0.261E-02 -.153E-02 -.917E-01   0.112E-02 -.109E-02 -.239E-03   0.150E-02 -.900E-04 0.164E-01
   -.336E-02 -.239E-03 0.754E-01   0.267E-02 -.149E-02 -.917E-01   0.111E-02 -.110E-02 -.239E-03   0.151E-02 -.606E-04 0.164E-01
   -.335E-02 -.173E-03 0.754E-01   0.267E-02 -.156E-02 -.917E-01   0.111E-02 -.109E-02 -.238E-03   0.150E-02 -.556E-04 0.164E-01
   0.159E-01 -.106E-01 0.114E+00   -.186E-01 0.124E-01 -.102E+00   -.204E-02 0.116E-02 0.240E-03   -.100E-03 0.493E-04 -.121E-01
   -.162E-01 -.731E-02 0.103E+00   0.130E-01 0.896E-02 -.910E-01   -.180E-02 0.123E-02 -.482E-04   -.107E-03 0.588E-04 -.121E-01
   -.306E-02 0.188E-01 0.108E+00   0.120E-03 -.167E-01 -.965E-01   -.198E-02 0.989E-03 0.993E-04   -.107E-03 0.386E-04 -.121E-01
   0.210E-02 0.317E-03 0.891E-01   -.522E-02 0.156E-02 -.770E-01   -.184E-02 0.113E-02 0.948E-04   -.937E-04 0.230E-04 -.121E-01
   -.167E-01 0.801E-02 0.778E-01   0.131E-01 -.593E-02 -.909E-01   -.183E-02 0.101E-02 -.932E-05   0.597E-04 -.336E-04 0.131E-01
   0.158E-01 0.114E-01 0.888E-01   -.188E-01 -.944E-02 -.102E+00   -.207E-02 0.108E-02 0.329E-03   0.116E-04 -.350E-04 0.131E-01
   -.344E-02 -.185E-01 0.833E-01   0.200E-03 0.200E-01 -.965E-01   -.201E-02 0.126E-02 0.164E-03   0.383E-04 0.124E-04 0.131E-01
   0.189E-02 0.305E-03 0.637E-01   -.529E-02 0.156E-02 -.768E-01   -.187E-02 0.112E-02 0.169E-03   0.328E-04 -.135E-04 0.131E-01
   0.988E-04 -.446E-04 -.373E-02   -.781E-15 -.146E-13 0.639E-13   -.566E-04 0.266E-04 0.353E-02   -.361E-04 0.189E-04 -.304E-04

 POSITION                                       TOTAL-FORCE (eV/Angst)
      2.46715     -0.00011      1.76551        -0.003290      0.003056     -0.011220
      4.93431     -0.00022      1.76551        -0.029444      0.003685     -0.047136
      1.23348      2.13645      1.76551        -0.072780     -0.021915     -0.047534
      3.70064      2.13634      1.76551        -0.073021      0.028261     -0.046696
      2.46715     -0.00011      8.82754        -0.002201      0.003055      0.000930
      4.93431     -0.00022      8.82754        -0.002205      0.003058      0.000922
      1.23348      2.13645      8.82754        -0.002205      0.003059      0.000920
      3.70064      2.13634      8.82754        -0.002201      0.003055      0.000923
     -1.23367      2.13656      5.29652         0.005465     -0.003200     -0.001172
      1.23348      2.13645      5.29652         0.005400     -0.003247     -0.001252
     -2.46735      4.27313      5.29652         0.005472     -0.003177     -0.001212
     -0.00019      4.27302      5.29652         0.005379     -0.003208     -0.000790
     -1.23367      2.13656     12.35855         0.005706     -0.003024     -0.001255
      1.23348      2.13645     12.35855         0.005765     -0.003111     -0.001174
     -2.46735      4.27313     12.35855         0.005810     -0.003114     -0.001214
     -0.00019      4.27302     12.35855         0.005683     -0.003081     -0.000787
     -0.00349      1.42441      1.75607         0.205775     -0.003833      0.135823
      2.46696      1.42430      1.76551        -0.032705     -0.002896      0.007427
     -1.23387      3.56098      1.76551         0.001396      0.016791      0.007368
      1.23329      3.56086      1.76551         0.001491     -0.022647      0.007503
     -0.00019      1.42441      8.82754         0.001935     -0.002883     -0.000190
      2.46696      1.42430      8.82754         0.001942     -0.002884     -0.000117
     -1.23387      3.56098      8.82754         0.001941     -0.002887     -0.000117
      1.23329      3.56086      8.82754         0.001938     -0.002885     -0.000117
      1.23367      0.71204      5.29652        -0.004904      0.002959      0.000001
      3.70083      0.71193      5.29652        -0.005160      0.002945     -0.000063
     -0.00000      2.84860      5.29652        -0.005020      0.003170     -0.000028
      2.46715      2.84849      5.29652        -0.005059      0.003028      0.000105
      1.23367      0.71204     12.35855        -0.005358      0.003054     -0.000053
      3.70083      0.71193     12.35855        -0.005101      0.003032      0.000055
     -0.00000      2.84860     12.35855        -0.005210      0.002819      0.000005
      2.46715      2.84849     12.35855        -0.005237      0.002966      0.000145
    total drift:                                0.000006      0.000001     -0.000233

  FREE ENERGIE OF THE ION-ELECTRON SYSTEM (eV)
  free  energy   TOTEN  =      -297.76910377 eV

  energy  without entropy=     -297.76910377  energy(sigma->0) =     -297.76910377

 BZINTS: Fermi energy:  4.233433;128.000000 electrons
         Band energy:-624.038744;  BLOECHL correction: -0.000003