 vasp.5.3.5 31Mar14 (build Nov 02 2014 15:17:37) complex

 executed on        ion-Intel-MKL date 2016.08.24  00:49:38

 INCAR:
 POTCAR:   PAW_PBE C 08Apr2002

 POTCAR:   PAW_PBE C 08Apr2002
   VRHFIN =C: s2p2

   TITEL  = PAW_PBE C 08Apr2002
   POMASS =   12.011; ZVAL   =    4.000    mass and valenz
   ENMAX  =  400.000; ENMIN  =  300.000 eV
   QCUT   =   -5.516; QGAM   =   11.032    optimization parameters

   Description
     l     E      TYP  RCUT    TYP  RCUT
     0   .000     23  1.200
     0   .000     23  1.200
     1   .000     23  1.500
     1  2.500     23  1.500
     2   .000      7  1.500

 PAW_PBE C 08Apr2002                    :

 POSCAR: C
  positions in direct lattice
 exchange correlation table for  LEXCH =        8
   RHO(1)=    0.500       N(1)  =     2000
   RHO(2)=  100.500       N(2)  =     4000

 ion  position               nearest neighbor table
   1  0.499  0.000  0.124-  19 1.42  18 1.42  20 1.43
   2  1.000  0.000  0.125-  19 1.42  17 1.42  20 1.42
   3  0.500  0.500  0.125-  18 1.42  20 1.42  17 1.42
   4  1.000  0.500  0.125-  17 1.42  19 1.42  18 1.42
   5  0.500  0.000  0.625-  24 1.42  22 1.42  23 1.42
   6  1.000  0.000  0.625-  23 1.42  21 1.42  24 1.42
   7  0.500  0.500  0.625-  22 1.42  24 1.42  21 1.42
   8  1.000  0.500  0.625-  21 1.42  23 1.42  22 1.42
   9  0.000  0.500  0.375-  28 1.42  27 1.42  26 1.42
  10  0.500  0.500  0.375-  27 1.42  28 1.42  25 1.42
  11  0.000  1.000  0.375-  26 1.42  25 1.42  28 1.42
  12  0.500  1.000  0.375-  25 1.42  26 1.42  27 1.42
  13  0.000  0.500  0.875-  32 1.42  31 1.42  30 1.42
  14  0.500  0.500  0.875-  31 1.42  32 1.42  29 1.42
  15  0.000  1.000  0.875-  30 1.42  29 1.42  32 1.42
  16  0.500  1.000  0.875-  29 1.42  30 1.42  31 1.42
  17  0.167  0.333  0.125-   4 1.42   2 1.42   3 1.42
  18  0.667  0.333  0.125-   3 1.42   4 1.42   1 1.42
  19  0.167  0.833  0.125-   1 1.42   2 1.42   4 1.42
  20  0.667  0.833  0.125-   3 1.42   2 1.42   1 1.43
  21  0.167  0.333  0.625-   8 1.42   6 1.42   7 1.42
  22  0.667  0.333  0.625-   7 1.42   5 1.42   8 1.42
  23  0.167  0.833  0.625-   6 1.42   8 1.42   5 1.42
  24  0.667  0.833  0.625-   5 1.42   7 1.42   6 1.42
  25  0.333  0.167  0.375-  12 1.42  11 1.42  10 1.42
  26  0.833  0.167  0.375-  11 1.42  12 1.42   9 1.42
  27  0.333  0.667  0.375-  10 1.42   9 1.42  12 1.42
  28  0.833  0.667  0.375-   9 1.42  10 1.42  11 1.42
  29  0.333  0.167  0.875-  16 1.42  15 1.42  14 1.42
  30  0.833  0.167  0.875-  15 1.42  16 1.42  13 1.42
  31  0.333  0.667  0.875-  14 1.42  13 1.42  16 1.42
  32  0.833  0.667  0.875-  13 1.42  14 1.42  15 1.42

  LATTYP: Found a base centered orthorhombic cell.
 ALAT       =     4.9339256766
 B/A-ratio  =     1.7322311103
 C/A-ratio  =     2.0447437050

  Lattice vectors:

 A1 = (   4.9343108848,  -0.0002224000,   0.0000000000)
 A2 = (  -2.4673480464,   4.2731273763,   0.0000000000)
 A3 = (   0.0000000000,   0.0000000000,  10.0886134680)

Analysis of symmetry for initial positions (statically):
 Subroutine PRICEL returns:
 Original cell was already a primitive cell.

 Routine SETGRP: Setting up the symmetry group for a
 base centered orthorhombic supercell.

 Subroutine GETGRP returns: Found  1 space group operations
 (whereof  1 operations were pure point group operations)
 out of a pool of  8 trial point group operations.

The static configuration has the point symmetry C_1 .

Analysis of symmetry for dynamics (positions and initial velocities):
 Subroutine PRICEL returns:
 Original cell was already a primitive cell.

 Routine SETGRP: Setting up the symmetry group for a
 base centered orthorhombic supercell.

 Subroutine GETGRP returns: Found  1 space group operations
 (whereof  1 operations were pure point group operations)
 out of a pool of  8 trial point group operations.

The dynamic configuration has the point symmetry C_1 .

 KPOINTS: B4C B11C-CBC

Automatic generation of k-mesh.
Space group operators:
 irot       det(A)        alpha          n_x          n_y          n_z        tau_x        tau_y        tau_z
    1     1.000000     0.000000     1.000000     0.000000     0.000000     0.000000     0.000000     0.000000

 Subroutine IBZKPT returns following result:

 Found    163 irreducible k-points:

 Following reciprocal coordinates:
            Coordinates               Weight
  0.000000  0.000000  0.000000      1.000000
  0.111111  0.000000  0.000000      2.000000
  0.222222  0.000000  0.000000      2.000000
  0.333333  0.000000  0.000000      2.000000
  0.444444  0.000000  0.000000      2.000000
 -0.000000  0.111111  0.000000      2.000000
  0.111111  0.111111  0.000000      2.000000
  0.222222  0.111111  0.000000      2.000000
  0.333333  0.111111  0.000000      2.000000
  0.444444  0.111111  0.000000      2.000000
 -0.444444  0.111111  0.000000      2.000000
 -0.333333  0.111111  0.000000      2.000000
 -0.222222  0.111111  0.000000      2.000000
 -0.111111  0.111111  0.000000      2.000000
  0.000000  0.222222  0.000000      2.000000
  0.111111  0.222222  0.000000      2.000000
  0.222222  0.222222  0.000000      2.000000
  0.333333  0.222222  0.000000      2.000000
  0.444444  0.222222  0.000000      2.000000
 -0.444444  0.222222  0.000000      2.000000
 -0.333333  0.222222  0.000000      2.000000
 -0.222222  0.222222  0.000000      2.000000
 -0.111111  0.222222  0.000000      2.000000
  0.000000  0.333333  0.000000      2.000000
  0.111111  0.333333  0.000000      2.000000
  0.222222  0.333333  0.000000      2.000000
  0.333333  0.333333  0.000000      2.000000
  0.444444  0.333333  0.000000      2.000000
 -0.444444  0.333333  0.000000      2.000000
 -0.333333  0.333333  0.000000      2.000000
 -0.222222  0.333333  0.000000      2.000000
 -0.111111  0.333333  0.000000      2.000000
  0.000000  0.444444  0.000000      2.000000
  0.111111  0.444444  0.000000      2.000000
  0.222222  0.444444  0.000000      2.000000
  0.333333  0.444444  0.000000      2.000000
  0.444444  0.444444  0.000000      2.000000
 -0.444444  0.444444  0.000000      2.000000
 -0.333333  0.444444  0.000000      2.000000
 -0.222222  0.444444  0.000000      2.000000
 -0.111111  0.444444  0.000000      2.000000
  0.000000  0.000000  0.250000      2.000000
  0.111111  0.000000  0.250000      2.000000
  0.222222  0.000000  0.250000      2.000000
  0.333333  0.000000  0.250000      2.000000
  0.444444  0.000000  0.250000      2.000000
 -0.444444  0.000000  0.250000      2.000000
 -0.333333  0.000000  0.250000      2.000000
 -0.222222  0.000000  0.250000      2.000000
 -0.111111 -0.000000  0.250000      2.000000
 -0.000000  0.111111  0.250000      2.000000
  0.111111  0.111111  0.250000      2.000000
  0.222222  0.111111  0.250000      2.000000
  0.333333  0.111111  0.250000      2.000000
  0.444444  0.111111  0.250000      2.000000
 -0.444444  0.111111  0.250000      2.000000
 -0.333333  0.111111  0.250000      2.000000
 -0.222222  0.111111  0.250000      2.000000
 -0.111111  0.111111  0.250000      2.000000
  0.000000  0.222222  0.250000      2.000000
[...]
  0.333333  0.333333  0.500000      2.000000
  0.444444  0.333333  0.500000      2.000000
 -0.444444  0.333333  0.500000      2.000000
 -0.333333  0.333333  0.500000      2.000000
 -0.222222  0.333333  0.500000      2.000000
 -0.111111  0.333333  0.500000      2.000000
  0.000000  0.444444  0.500000      2.000000
  0.111111  0.444444  0.500000      2.000000
  0.222222  0.444444  0.500000      2.000000
  0.333333  0.444444  0.500000      2.000000
  0.444444  0.444444  0.500000      2.000000
 -0.444444  0.444444  0.500000      2.000000
 -0.333333  0.444444  0.500000      2.000000
 -0.222222  0.444444  0.500000      2.000000
 -0.111111  0.444444  0.500000      2.000000

 Following cartesian coordinates:
            Coordinates               Weight
  0.000000  0.000000  0.000000      1.000000
  0.022519  0.013002  0.000000      2.000000
  0.045037  0.026005  0.000000      2.000000
  0.067556  0.039007  0.000000      2.000000
  0.090075  0.052010  0.000000      2.000000
  0.000001  0.026003  0.000000      2.000000
  0.022520  0.039005  0.000000      2.000000
  0.045038  0.052008  0.000000      2.000000
  0.067557  0.065010  0.000000      2.000000
  0.090076  0.078013  0.000000      2.000000
 -0.090073 -0.026007  0.000000      2.000000
 -0.067555 -0.013005  0.000000      2.000000
 -0.045036 -0.000002  0.000000      2.000000
 -0.022517  0.013000  0.000000      2.000000
  0.000002  0.052006  0.000000      2.000000
  0.022521  0.065008  0.000000      2.000000
  0.045040  0.078011  0.000000      2.000000
  0.067558  0.091013  0.000000      2.000000
  0.090077  0.104016  0.000000      2.000000
 -0.090072 -0.000004  0.000000      2.000000
 -0.067554  0.012998  0.000000      2.000000
 -0.045035  0.026001  0.000000      2.000000
 -0.022516  0.039003  0.000000      2.000000
  0.000004  0.078009  0.000000      2.000000
  0.022522  0.091011  0.000000      2.000000
  0.045041  0.104014  0.000000      2.000000
  0.067559  0.117016  0.000000      2.000000
  0.090078  0.130019  0.000000      2.000000
 -0.090071  0.025999  0.000000      2.000000
 -0.067552  0.039001  0.000000      2.000000
 -0.045034  0.052004  0.000000      2.000000
 -0.022515  0.065006  0.000000      2.000000
  0.000005  0.104012  0.000000      2.000000
  0.022523  0.117014  0.000000      2.000000
  0.045042  0.130017  0.000000      2.000000
  0.067561  0.143019  0.000000      2.000000
  0.090079  0.156022  0.000000      2.000000
 -0.090070  0.052002  0.000000      2.000000
 -0.067551  0.065004  0.000000      2.000000
 -0.045033  0.078007  0.000000      2.000000
 -0.022514  0.091009  0.000000      2.000000
  0.000000  0.000000  0.024780      2.000000
  0.022519  0.013002  0.024780      2.000000
  0.045037  0.026005  0.024780      2.000000
  0.067556  0.039007  0.024780      2.000000
  0.090075  0.052010  0.024780      2.000000
 -0.090075 -0.052010  0.024780      2.000000
 -0.067556 -0.039007  0.024780      2.000000
 -0.045037 -0.026005  0.024780      2.000000
 -0.022519 -0.013002  0.024780      2.000000
  0.000001  0.026003  0.024780      2.000000
  0.022520  0.039005  0.024780      2.000000
  0.045038  0.052008  0.024780      2.000000
  0.067557  0.065010  0.024780      2.000000
  0.090076  0.078013  0.024780      2.000000
 -0.090073 -0.026007  0.024780      2.000000
 -0.067555 -0.013005  0.024780      2.000000
 -0.045036 -0.000002  0.024780      2.000000
 -0.022517  0.013000  0.024780      2.000000
  0.000002  0.052006  0.024780      2.000000
[...]
  0.067559  0.117016  0.049561      2.000000
  0.090078  0.130019  0.049561      2.000000
 -0.090071  0.025999  0.049561      2.000000
 -0.067552  0.039001  0.049561      2.000000
 -0.045034  0.052004  0.049561      2.000000
 -0.022515  0.065006  0.049561      2.000000
  0.000005  0.104012  0.049561      2.000000
  0.022523  0.117014  0.049561      2.000000
  0.045042  0.130017  0.049561      2.000000
  0.067561  0.143019  0.049561      2.000000
  0.090079  0.156022  0.049561      2.000000
 -0.090070  0.052002  0.049561      2.000000
 -0.067551  0.065004  0.049561      2.000000
 -0.045033  0.078007  0.049561      2.000000
 -0.022514  0.091009  0.049561      2.000000

[...]

[...]

 eigenvalue-minimisations  : 20844
 total energy-change (2. order) : 0.2145434E-06  (-0.5371796E-06)
 number of electron     127.9999998 magnetization
 augmentation part        3.0830979 magnetization

 Free energy of the ion-electron system (eV)
  alpha Z        PSCENC =       392.24672258
  Ewald energy   TEWEN  =     -4908.52035389
  -Hartree energ DENC   =      -712.68599874
  -exchange      EXHF   =         0.00000000
  -V(xc)+E(xc)   XCENC  =       466.60739177
  PAW double counting   =      2239.88330241    -2281.33290792
  entropy T*S    EENTRO =         0.00000000
  eigenvalues    EBANDS =      -191.69353236
  atomic energy  EATOM  =      4708.80920826
  free energy    TOTEN  =      -286.68616788 eV

  energy without entropy =     -286.68616788  energy(sigma->0) =     -286.68616788

 average (electrostatic) potential at core
  the test charge radii are     0.6991
  (the norm of the test charge is              1.0000)
       1 -47.8127       2 -47.8126       3 -47.8098       4 -47.8153       5 -47.8133
       6 -47.8133       7 -47.8134       8 -47.8133       9 -47.8127      10 -47.8124
      11 -47.8125      12 -47.8106      13 -47.8134      14 -47.8132      15 -47.8133
      16 -47.8153      17 -47.5629      18 -47.5629      19 -47.5635      20 -47.5623
      21 -47.5638      22 -47.5638      23 -47.5640      24 -47.5637      25 -47.5632
      26 -47.5633      27 -47.5632      28 -47.5626      29 -47.5632      30 -47.5633
      31 -47.5633      32 -47.5638

 E-fermi :   7.5696     XC(G=0): -12.2279     alpha+bet :-15.1024

 k-point     1 :       0.0000    0.0000    0.0000
  band No.  band energies     occupation
      1     -12.8504      2.00000
      2     -12.0428      2.00000
      3     -12.0404      2.00000
      4     -10.9133      2.00000
      5      -7.2759      2.00000
      6      -7.2745      2.00000
      7      -7.2734      2.00000
      8      -6.7333      2.00000
      9      -6.7283      2.00000
     10      -6.7276      2.00000
     11      -6.7268      2.00000
     12      -6.7262      2.00000
     13      -6.7226      2.00000
     14      -6.6972      2.00000
     15      -6.6951      2.00000
     16      -6.6911      2.00000
     17      -5.6906      2.00000
     18      -5.6872      2.00000
     19      -5.6865      2.00000
     20      -5.6858      2.00000
     21      -5.6847      2.00000
     22      -5.6819      2.00000
     23      -5.4231      2.00000
     24      -5.4213      2.00000
     25      -5.4189      2.00000
     26      -5.0853      2.00000
     27      -5.0838      2.00000
     28      -5.0832      2.00000
     29      -2.6981      2.00000
     30       0.2927      2.00000
     31       0.2975      2.00000
     32       0.9595      2.00000
     33       0.9622      2.00000
     34       0.9634      2.00000
     35       1.2433      2.00000
     36       1.2466      2.00000
     37       1.2468      2.00000
     38       1.2480      2.00000
     39       1.2499      2.00000
     40       1.2519      2.00000
     41       1.5511      2.00000
     42       1.5540      2.00000
     43       1.5554      2.00000
     44       3.3445      2.00000
     45       3.3454      2.00000
     46       3.3463      2.00000
     47       3.9726      2.00000
     48       4.5173      2.00000
     49       4.5218      2.00000
     50       4.6329      2.00000
     51       4.6369      2.00000
     52       4.6417      2.00000
     53       4.6454      2.00000
     54       4.7557      2.00000
     55       4.7607      2.00000
     56       5.3178      2.00000
     57       5.3213      2.00000
     58       5.3230      2.00000
     59       5.3449      2.00000
     60       5.3529      2.00000
[...]
     70       9.2670      0.00000
     71      10.4973      0.00000
     72      10.4998      0.00000
     73      10.5023      0.00000
     74      11.0476      0.00000
     75      11.0498      0.00000
     76      11.0507      0.00000
     77      13.8292      0.00000
     78      13.8336      0.00000
     79      13.8368      0.00000
     80      14.8994      0.00000
     81      14.9061      0.00000
     82      14.9067      0.00000
     83      14.9087      0.00000
     84      14.9114      0.00000

[...]

 k-point   163 :      -0.1111    0.4444    0.5000
  band No.  band energies     occupation
      1     -11.6596      2.00000
      2     -11.6571      2.00000
      3     -10.3718      2.00000
      4     -10.3707      2.00000
      5     -10.3268      2.00000
      6     -10.3244      2.00000
      7      -9.1108      2.00000
      8      -9.1098      2.00000
      9      -9.0255      2.00000
     10      -9.0231      2.00000
     11      -7.8850      2.00000
     12      -7.8841      2.00000
     13      -7.1669      2.00000
     14      -7.1647      2.00000
     15      -6.1816      2.00000
     16      -6.1804      2.00000
     17      -4.5458      2.00000
     18      -4.5428      2.00000
     19      -3.8258      2.00000
     20      -3.8244      2.00000
     21      -2.8652      2.00000
     22      -2.8622      2.00000
     23      -2.1854      2.00000
     24      -2.1834      2.00000
     25      -1.7897      2.00000
     26      -1.7871      2.00000
     27      -1.6090      2.00000
     28      -1.6072      2.00000
     29      -1.2146      2.00000
     30      -1.2119      2.00000
     31      -0.9133      2.00000
     32      -0.9129      2.00000
     33      -0.6867      2.00000
     34      -0.6831      2.00000
     35      -0.3069      2.00000
     36      -0.3049      2.00000
     37       0.1927      2.00000
     38       0.1949      2.00000
     39       0.8638      2.00000
     40       0.8678      2.00000
     41       1.3714      2.00000
     42       1.3736      2.00000
     43       1.6659      2.00000
     44       1.6676      2.00000
     45       1.8298      2.00000
     46       1.8329      2.00000
     47       2.0776      2.00000
     48       2.0785      2.00000
     49       2.3435      2.00000
     50       2.3477      2.00000
     51       2.8400      2.00000
     52       2.8426      2.00000
     53       3.1679      2.00000
     54       3.1689      2.00000
     55       3.7188      2.00000
     56       3.7226      2.00000
     57       4.3400      2.00000
     58       4.3453      2.00000
     59       4.9678      2.00000
     60       4.9714      2.00000
[...]
     70      10.3494      0.00000
     71      12.0702      0.00000
     72      12.0753      0.00000
     73      12.1631      0.00000
     74      12.1680      0.00000
     75      14.0061      0.00000
     76      14.0113      0.00000
     77      14.9539      0.00000
     78      14.9603      0.00000
     79      15.1526      0.00000
     80      15.1552      0.00000
     81      15.7163      0.00000
     82      15.7229      0.00000
     83      16.2320      0.00000
     84      16.2379      0.00000

 soft charge-density along one line, spin component           1
         0         1         2         3         4         5         6         7         8         9
 total charge-density along one line

------------------------ aborting loop because EDIFF is reached ----------------------------------------

         DFTD3 V3.0 Rev 1
 IVDW         = 11
 DF pbe
 parameters
 VDW_S6       =    1.0000
 VDW_S8       =    0.7220
 VDW_SR       =    1.2170
 rs18     =    1.0000
 alpha6   =   14.0000
 alpha8   =   16.0000
 k1-k3    =   16.0000    1.3333   -4.0000
 VDW_RADIUS   =   50.2022 A
 VDW_CNRADIUS =   21.1671 A
 Edisp (eV)   -3.76409

 E6    (eV) :    -2.2364
 E8    (eV) :    -1.5277
 % E8        : 40.58

  FORCE on cell =-STRESS in cart. coord.  units (eV):
  Direction    XX          YY          ZZ          XY          YZ          ZX
  Alpha Z   392.24672   392.24672   392.24672
  Ewald    -597.33863  -597.73768 -3713.46176     0.60040    -0.00006    -0.01031
  Hartree   535.54726   535.49568  -358.35370     0.08031    -0.00025    -0.00183
  E(xc)    -472.78164  -472.78374  -484.28266     0.00161    -0.00007     0.00008
  Local   -1667.83034 -1667.45000  2092.73789    -0.55740    -0.00048     0.01099
  n-local  -110.83722  -110.85241  -108.31555    -0.00583    -0.00070     0.00106
  augment   -12.48120   -12.48054   -11.40682    -0.00095     0.00001    -0.00002
  Kinetic  1930.15032  1930.26427  2256.95829    -0.04703     0.00900    -0.01233
  Fock        0.00000     0.00000     0.00000     0.00000     0.00000     0.00000
  vdW         0.92371     0.92487    -0.29957     0.00056     0.00000    -0.00002
  Total      -2.40102    -2.37284    65.82285     0.07167     0.00746    -0.01237
  in kB     -18.08483   -17.87256   495.78655     0.53986     0.05616    -0.09317

 VOLUME and BASIS-vectors are now :
  energy-cutoff  :      600.00
  volume of cell :      212.71
      direct lattice vectors                 reciprocal lattice vectors
     4.934310885 -0.000222400  0.000000000     0.202667819  0.117022500  0.000000000
    -2.467348046  4.273127376  0.000000000     0.000010548  0.234026730  0.000000000
     0.000000000  0.000000000 10.088613468     0.000000000  0.000000000  0.099121649

  length of vectors
     4.934310890  4.934310890 10.088613468     0.234026730  0.234026730  0.099121649

 FORCES acting on ions
    electron-ion (+dipol)            ewald-force                    non-local-force                 convergence-correction
   -.950E+00 -.394E-02 0.662E+00   0.110E+01 0.706E-02 -.704E+00   0.115E+00 0.152E-02 0.130E+00   0.257E-04 0.189E-04 0.470E-01
   0.257E+00 0.157E-03 -.384E+00   -.280E+00 0.161E-02 0.321E+00   -.239E-01 0.131E-02 0.106E-01   -.120E-03 0.155E-04 0.466E-01
   0.362E-01 -.127E+00 -.384E+00   -.268E-01 0.148E+00 0.321E+00   -.978E-02 0.939E-02 0.106E-01   -.160E-04 0.718E-04 0.466E-01
   0.359E-01 0.128E+00 -.384E+00   -.267E-01 -.145E+00 0.321E+00   -.972E-02 -.695E-02 0.106E-01   -.210E-04 -.414E-04 0.466E-01
   -.196E-02 0.343E-03 0.176E+00   -.118E-02 0.160E-02 -.129E+00   -.241E-02 0.124E-02 -.702E-02   -.216E-04 0.103E-04 -.467E-01
   0.307E-03 0.346E-03 0.167E+00   -.439E-02 0.160E-02 -.120E+00   -.216E-02 0.124E-02 -.898E-02   -.140E-04 0.153E-04 -.467E-01
   -.975E-03 -.397E-03 0.167E+00   -.280E-02 0.251E-02 -.120E+00   -.232E-02 0.116E-02 -.899E-02   -.199E-04 0.734E-05 -.467E-01
   -.949E-03 0.105E-02 0.167E+00   -.280E-02 0.680E-03 -.120E+00   -.233E-02 0.133E-02 -.897E-02   -.140E-04 0.820E-05 -.467E-01
   0.389E-03 0.168E-01 0.119E+00   0.180E-02 -.182E-01 -.789E-01   0.227E-02 -.852E-03 0.859E-02   0.267E-04 -.319E-04 -.406E-01
   0.347E-02 -.157E-01 0.118E+00   0.179E-02 0.149E-01 -.789E-01   0.238E-02 -.158E-02 0.111E-01   0.112E-04 0.293E-05 -.407E-01
   0.301E-01 -.210E-02 0.119E+00   -.269E-01 -.162E-02 -.788E-01   0.296E-02 -.132E-02 0.987E-02   -.130E-04 -.160E-05 -.406E-01
   -.363E-01 -.317E-03 0.309E+00   0.407E-01 -.162E-02 -.278E+00   0.256E-02 -.125E-02 0.146E-01   0.526E-04 -.131E-04 -.407E-01
   0.360E-02 0.154E-01 0.360E-01   0.176E-02 -.186E-01 -.784E-01   0.244E-02 -.921E-03 0.112E-01   0.196E-04 -.308E-04 0.407E-01
   0.572E-03 -.178E-01 0.369E-01   0.175E-02 0.153E-01 -.784E-01   0.228E-02 -.167E-02 0.867E-02   0.225E-04 0.614E-05 0.407E-01
   0.309E-01 0.142E-02 0.365E-01   -.276E-01 -.162E-02 -.785E-01   0.302E-02 -.116E-02 0.995E-02   -.130E-04 -.141E-04 0.407E-01
   -.373E-01 -.330E-03 0.229E+00   0.418E-01 -.162E-02 -.281E+00   0.256E-02 -.125E-02 0.154E-01   0.487E-04 -.903E-05 0.407E-01
   0.950E-01 0.798E-03 -.321E+00   -.943E-01 -.149E-02 0.277E+00   -.111E-02 -.883E-03 -.141E-01   0.142E-03 -.101E-03 0.466E-01
   -.306E+00 0.853E-02 -.816E+00   0.299E+00 -.993E-02 0.808E+00   -.306E-01 -.664E-03 -.720E-01   0.161E-03 -.101E-03 0.466E-01
   0.411E+00 0.416E+00 -.821E+00   -.482E+00 -.454E+00 0.814E+00   -.225E-01 0.387E-02 -.723E-01   0.168E-03 -.956E-04 0.466E-01
   0.420E+00 -.417E+00 -.812E+00   -.491E+00 0.453E+00 0.803E+00   -.212E-01 -.617E-02 -.718E-01   0.170E-03 -.101E-03 0.466E-01
   -.652E-03 0.991E-03 0.167E+00   0.241E-02 -.183E-02 -.119E+00   0.167E-02 -.911E-03 0.724E-03   0.113E-03 -.757E-04 -.466E-01
   -.201E-02 0.949E-03 0.171E+00   0.400E-02 -.181E-02 -.123E+00   0.168E-02 -.916E-03 0.107E-02   0.120E-03 -.731E-04 -.466E-01
   -.143E-02 0.133E-02 0.171E+00   0.317E-02 -.231E-02 -.123E+00   0.167E-02 -.918E-03 0.106E-02   0.116E-03 -.735E-04 -.466E-01
   -.148E-02 0.683E-03 0.171E+00   0.320E-02 -.137E-02 -.123E+00   0.166E-02 -.904E-03 0.106E-02   0.118E-03 -.734E-04 -.466E-01
   -.568E-01 0.234E-01 0.144E+00   0.594E-01 -.247E-01 -.104E+00   -.244E-02 0.107E-02 -.500E-02   -.130E-03 0.939E-04 -.406E-01
   0.654E-01 0.449E-01 0.205E+00   -.720E-01 -.474E-01 -.168E+00   -.190E-02 0.103E-02 -.398E-02   -.126E-03 0.696E-04 -.406E-01
   -.143E-01 -.716E-01 0.175E+00   0.134E-01 0.777E-01 -.136E+00   -.213E-02 0.583E-03 -.451E-02   -.109E-03 0.825E-04 -.406E-01
   0.135E-01 -.101E-02 0.106E+00   -.165E-01 0.180E-02 -.673E-01   -.909E-03 0.900E-03 0.158E-02   -.146E-03 0.826E-04 -.406E-01
   0.660E-01 -.478E-01 0.124E+00   -.729E-01 0.520E-01 -.169E+00   -.193E-02 0.760E-03 -.382E-02   -.131E-03 0.955E-04 0.406E-01
   -.572E-01 -.255E-01 0.610E-01   0.599E-01 0.285E-01 -.104E+00   -.253E-02 0.711E-03 -.485E-02   -.133E-03 0.766E-04 0.407E-01
   -.149E-01 0.701E-01 0.926E-01   0.139E-01 -.749E-01 -.136E+00   -.218E-02 0.126E-02 -.431E-02   -.118E-03 0.802E-04 0.406E-01
   0.138E-01 -.101E-02 0.231E-01   -.169E-01 0.182E-02 -.668E-01   -.945E-03 0.913E-03 0.185E-02   -.153E-03 0.823E-04 0.407E-01
   0.707E-03 0.782E-04 0.317E-01   -.211E-13 -.588E-13 -.711E-13   -.765E-03 -.163E-04 -.320E-01   0.176E-04 -.168E-04 0.325E-03

 POSITION                                       TOTAL-FORCE (eV/Angst)
      2.46276     -0.00011      1.25209         0.263394      0.004664      0.136829
      4.93431     -0.00022      1.26108        -0.049227      0.003097     -0.004869
      1.23348      2.13645      1.26108        -0.000711      0.031170     -0.004786
      3.70064      2.13634      1.26108        -0.000901     -0.024771     -0.004932
      2.46715     -0.00011      6.30538        -0.005575      0.003190     -0.006973
      4.93431     -0.00022      6.30538        -0.006258      0.003196     -0.008308
      1.23348      2.13645      6.30538        -0.006116      0.003280     -0.008310
      3.70064      2.13634      6.30538        -0.006088      0.003074     -0.008295
     -1.23367      2.13656      3.78323         0.004486     -0.002270      0.008447
      1.23348      2.13645      3.78323         0.007656     -0.002327      0.010016
     -2.46735      4.27313      3.78323         0.006136     -0.005039      0.009232
     -0.00019      4.27302      3.78323         0.007009     -0.003205      0.003547
     -1.23367      2.13656      8.82754         0.007825     -0.004136      0.009425
      1.23348      2.13645      8.82754         0.004633     -0.004178      0.007879
     -2.46735      4.27313      8.82754         0.006281     -0.001372      0.008665
     -0.00019      4.27302      8.82754         0.007170     -0.003218      0.003332
     -0.00019      1.42441      1.26108        -0.000379     -0.001673     -0.011914
      2.46696      1.42430      1.26108        -0.037241     -0.002162     -0.033478
     -1.23387      3.56098      1.26108        -0.092825     -0.033856     -0.032947
      1.23329      3.56086      1.26108        -0.091464      0.029523     -0.033934
     -0.00019      1.42441      6.30538         0.003540     -0.001821      0.001928
      2.46696      1.42430      6.30538         0.003793     -0.001845      0.001702
     -1.23387      3.56098      6.30538         0.003530     -0.001967      0.001692
      1.23329      3.56086      6.30538         0.003505     -0.001667      0.001700
      1.23367      0.71204      3.78323         0.000139     -0.000135     -0.006512
      3.70083      0.71193      3.78323        -0.008713     -0.001422     -0.007561
     -0.00000      2.84860      3.78323        -0.003160      0.006873     -0.007055
      2.46715      2.84849      3.78323        -0.004038      0.001772     -0.000747
      1.23367      0.71204      8.82754        -0.009073      0.005135     -0.008137
      3.70083      0.71193      8.82754         0.000167      0.003823     -0.006982
     -0.00000      2.84860      8.82754        -0.003306     -0.003533     -0.007536
      2.46715      2.84849      8.82754        -0.004192      0.001798     -0.001119
    total drift:                               -0.000040      0.000045      0.000011

  FREE ENERGIE OF THE ION-ELECTRON SYSTEM (eV)
  free  energy   TOTEN  =      -290.45025986 eV

  energy  without entropy=     -290.45025986  energy(sigma->0) =     -290.45025986

 BZINTS: Fermi energy:  7.569599;128.000000 electrons
         Band energy:-191.693532;  BLOECHL correction: -0.003920