 vasp.5.3.5 31Mar14 (build Nov 02 2014 15:17:37) complex

 executed on        ion-Intel-MKL date 2016.08.24  01:48:00

 INCAR:
 POTCAR:   PAW_PBE C 08Apr2002

 POTCAR:   PAW_PBE C 08Apr2002
   VRHFIN =C: s2p2

   TITEL  = PAW_PBE C 08Apr2002
   POMASS =   12.011; ZVAL   =    4.000    mass and valenz
   ENMAX  =  400.000; ENMIN  =  300.000 eV
   QCUT   =   -5.516; QGAM   =   11.032    optimization parameters

   Description
     l     E      TYP  RCUT    TYP  RCUT
     0   .000     23  1.200
     0   .000     23  1.200
     1   .000     23  1.500
     1  2.500     23  1.500
     2   .000      7  1.500

 PAW_PBE C 08Apr2002                    :

 POSCAR: C
  positions in direct lattice
 exchange correlation table for  LEXCH =        8
   RHO(1)=    0.500       N(1)  =     2000
   RHO(2)=  100.500       N(2)  =     4000

 ion  position               nearest neighbor table
   1  0.501  0.000  0.126-  20 1.42  18 1.42  19 1.43
   2  1.000  0.000  0.125-  19 1.42  17 1.42  20 1.42
   3  0.500  0.500  0.125-  18 1.42  20 1.42  17 1.42
   4  1.000  0.500  0.125-  17 1.42  19 1.42  18 1.42
   5  0.500  0.000  0.625-  24 1.42  22 1.42  23 1.42
   6  1.000  0.000  0.625-  23 1.42  21 1.42  24 1.42
   7  0.500  0.500  0.625-  22 1.42  24 1.42  21 1.42
   8  1.000  0.500  0.625-  21 1.42  23 1.42  22 1.42
   9  0.000  0.500  0.375-  28 1.42  27 1.42  26 1.42
  10  0.500  0.500  0.375-  27 1.42  28 1.42  25 1.42
  11  0.000  1.000  0.375-  26 1.42  25 1.42  28 1.42
  12  0.500  1.000  0.375-  25 1.42  26 1.42  27 1.42
  13  0.000  0.500  0.875-  32 1.42  31 1.42  30 1.42
  14  0.500  0.500  0.875-  31 1.42  32 1.42  29 1.42
  15  0.000  1.000  0.875-  30 1.42  29 1.42  32 1.42
  16  0.500  1.000  0.875-  29 1.42  30 1.42  31 1.42
  17  0.167  0.333  0.125-   4 1.42   2 1.42   3 1.42
  18  0.667  0.333  0.125-   3 1.42   4 1.42   1 1.42
  19  0.167  0.833  0.125-   2 1.42   4 1.42   1 1.43
  20  0.667  0.833  0.125-   1 1.42   3 1.42   2 1.42
  21  0.167  0.333  0.625-   8 1.42   6 1.42   7 1.42
  22  0.667  0.333  0.625-   7 1.42   5 1.42   8 1.42
  23  0.167  0.833  0.625-   6 1.42   8 1.42   5 1.42
  24  0.667  0.833  0.625-   5 1.42   7 1.42   6 1.42
  25  0.333  0.167  0.375-  12 1.42  11 1.42  10 1.42
  26  0.833  0.167  0.375-  11 1.42  12 1.42   9 1.42
  27  0.333  0.667  0.375-  10 1.42   9 1.42  12 1.42
  28  0.833  0.667  0.375-   9 1.42  10 1.42  11 1.42
  29  0.333  0.167  0.875-  16 1.42  15 1.42  14 1.42
  30  0.833  0.167  0.875-  15 1.42  16 1.42  13 1.42
  31  0.333  0.667  0.875-  14 1.42  13 1.42  16 1.42
  32  0.833  0.667  0.875-  13 1.42  14 1.42  15 1.42

  LATTYP: Found a base centered orthorhombic cell.
 ALAT       =     4.9339256766
 B/A-ratio  =     1.7322311103
 C/A-ratio  =     2.3173761993

  Lattice vectors:

 A1 = (   4.9343108848,  -0.0002224000,   0.0000000000)
 A2 = (  -2.4673480464,   4.2731273763,   0.0000000000)
 A3 = (   0.0000000000,   0.0000000000,  11.4337619320)

Analysis of symmetry for initial positions (statically):
 Subroutine PRICEL returns:
 Original cell was already a primitive cell.

 Routine SETGRP: Setting up the symmetry group for a
 base centered orthorhombic supercell.

 Subroutine GETGRP returns: Found  1 space group operations
 (whereof  1 operations were pure point group operations)
 out of a pool of  8 trial point group operations.

The static configuration has the point symmetry C_1 .

Analysis of symmetry for dynamics (positions and initial velocities):
 Subroutine PRICEL returns:
 Original cell was already a primitive cell.

 Routine SETGRP: Setting up the symmetry group for a
 base centered orthorhombic supercell.

 Subroutine GETGRP returns: Found  1 space group operations
 (whereof  1 operations were pure point group operations)
 out of a pool of  8 trial point group operations.

The dynamic configuration has the point symmetry C_1 .

 KPOINTS: B4C B11C-CBC

Automatic generation of k-mesh.
Space group operators:
 irot       det(A)        alpha          n_x          n_y          n_z        tau_x        tau_y        tau_z
    1     1.000000     0.000000     1.000000     0.000000     0.000000     0.000000     0.000000     0.000000

 Subroutine IBZKPT returns following result:

 Found    163 irreducible k-points:

 Following reciprocal coordinates:
            Coordinates               Weight
  0.000000  0.000000  0.000000      1.000000
  0.111111  0.000000  0.000000      2.000000
  0.222222  0.000000  0.000000      2.000000
  0.333333  0.000000  0.000000      2.000000
  0.444444  0.000000  0.000000      2.000000
 -0.000000  0.111111  0.000000      2.000000
  0.111111  0.111111  0.000000      2.000000
  0.222222  0.111111  0.000000      2.000000
  0.333333  0.111111  0.000000      2.000000
  0.444444  0.111111  0.000000      2.000000
 -0.444444  0.111111  0.000000      2.000000
 -0.333333  0.111111  0.000000      2.000000
 -0.222222  0.111111  0.000000      2.000000
 -0.111111  0.111111  0.000000      2.000000
 -0.000000  0.222222  0.000000      2.000000
  0.111111  0.222222  0.000000      2.000000
  0.222222  0.222222  0.000000      2.000000
  0.333333  0.222222  0.000000      2.000000
  0.444444  0.222222  0.000000      2.000000
 -0.444444  0.222222  0.000000      2.000000
 -0.333333  0.222222  0.000000      2.000000
 -0.222222  0.222222  0.000000      2.000000
 -0.111111  0.222222  0.000000      2.000000
 -0.000000  0.333333  0.000000      2.000000
  0.111111  0.333333  0.000000      2.000000
  0.222222  0.333333  0.000000      2.000000
  0.333333  0.333333  0.000000      2.000000
  0.444444  0.333333  0.000000      2.000000
 -0.444444  0.333333  0.000000      2.000000
 -0.333333  0.333333  0.000000      2.000000
 -0.222222  0.333333  0.000000      2.000000
 -0.111111  0.333333  0.000000      2.000000
 -0.000000  0.444444  0.000000      2.000000
  0.111111  0.444444  0.000000      2.000000
  0.222222  0.444444  0.000000      2.000000
  0.333333  0.444444  0.000000      2.000000
  0.444444  0.444444  0.000000      2.000000
 -0.444444  0.444444  0.000000      2.000000
 -0.333333  0.444444  0.000000      2.000000
 -0.222222  0.444444  0.000000      2.000000
 -0.111111  0.444444  0.000000      2.000000
  0.000000  0.000000  0.250000      2.000000
  0.111111  0.000000  0.250000      2.000000
  0.222222  0.000000  0.250000      2.000000
  0.333333  0.000000  0.250000      2.000000
  0.444444  0.000000  0.250000      2.000000
 -0.444444 -0.000000  0.250000      2.000000
 -0.333333 -0.000000  0.250000      2.000000
 -0.222222 -0.000000  0.250000      2.000000
 -0.111111 -0.000000  0.250000      2.000000
 -0.000000  0.111111  0.250000      2.000000
  0.111111  0.111111  0.250000      2.000000
  0.222222  0.111111  0.250000      2.000000
  0.333333  0.111111  0.250000      2.000000
  0.444444  0.111111  0.250000      2.000000
 -0.444444  0.111111  0.250000      2.000000
 -0.333333  0.111111  0.250000      2.000000
 -0.222222  0.111111  0.250000      2.000000
 -0.111111  0.111111  0.250000      2.000000
 -0.000000  0.222222  0.250000      2.000000
[...]
  0.333333  0.333333  0.500000      2.000000
  0.444444  0.333333  0.500000      2.000000
 -0.444444  0.333333  0.500000      2.000000
 -0.333333  0.333333  0.500000      2.000000
 -0.222222  0.333333  0.500000      2.000000
 -0.111111  0.333333  0.500000      2.000000
 -0.000000  0.444444  0.500000      2.000000
  0.111111  0.444444  0.500000      2.000000
  0.222222  0.444444  0.500000      2.000000
  0.333333  0.444444  0.500000      2.000000
  0.444444  0.444444  0.500000      2.000000
 -0.444444  0.444444  0.500000      2.000000
 -0.333333  0.444444  0.500000      2.000000
 -0.222222  0.444444  0.500000      2.000000
 -0.111111  0.444444  0.500000      2.000000

 Following cartesian coordinates:
            Coordinates               Weight
  0.000000  0.000000  0.000000      1.000000
  0.022519  0.013002  0.000000      2.000000
  0.045037  0.026005  0.000000      2.000000
  0.067556  0.039007  0.000000      2.000000
  0.090075  0.052010  0.000000      2.000000
  0.000001  0.026003  0.000000      2.000000
  0.022520  0.039005  0.000000      2.000000
  0.045038  0.052008  0.000000      2.000000
  0.067557  0.065010  0.000000      2.000000
  0.090076  0.078013  0.000000      2.000000
 -0.090073 -0.026007  0.000000      2.000000
 -0.067555 -0.013005  0.000000      2.000000
 -0.045036 -0.000002  0.000000      2.000000
 -0.022517  0.013000  0.000000      2.000000
  0.000002  0.052006  0.000000      2.000000
  0.022521  0.065008  0.000000      2.000000
  0.045040  0.078011  0.000000      2.000000
  0.067558  0.091013  0.000000      2.000000
  0.090077  0.104016  0.000000      2.000000
 -0.090072 -0.000004  0.000000      2.000000
 -0.067554  0.012998  0.000000      2.000000
 -0.045035  0.026001  0.000000      2.000000
 -0.022516  0.039003  0.000000      2.000000
  0.000004  0.078009  0.000000      2.000000
  0.022522  0.091011  0.000000      2.000000
  0.045041  0.104014  0.000000      2.000000
  0.067559  0.117016  0.000000      2.000000
  0.090078  0.130019  0.000000      2.000000
 -0.090071  0.025999  0.000000      2.000000
 -0.067552  0.039001  0.000000      2.000000
 -0.045034  0.052004  0.000000      2.000000
 -0.022515  0.065006  0.000000      2.000000
  0.000005  0.104012  0.000000      2.000000
  0.022523  0.117014  0.000000      2.000000
  0.045042  0.130017  0.000000      2.000000
  0.067561  0.143019  0.000000      2.000000
  0.090079  0.156022  0.000000      2.000000
 -0.090070  0.052002  0.000000      2.000000
 -0.067551  0.065004  0.000000      2.000000
 -0.045033  0.078007  0.000000      2.000000
 -0.022514  0.091009  0.000000      2.000000
  0.000000  0.000000  0.021865      2.000000
  0.022519  0.013002  0.021865      2.000000
  0.045037  0.026005  0.021865      2.000000
  0.067556  0.039007  0.021865      2.000000
  0.090075  0.052010  0.021865      2.000000
 -0.090075 -0.052010  0.021865      2.000000
 -0.067556 -0.039007  0.021865      2.000000
 -0.045037 -0.026005  0.021865      2.000000
 -0.022519 -0.013002  0.021865      2.000000
  0.000001  0.026003  0.021865      2.000000
  0.022520  0.039005  0.021865      2.000000
  0.045038  0.052008  0.021865      2.000000
  0.067557  0.065010  0.021865      2.000000
  0.090076  0.078013  0.021865      2.000000
 -0.090073 -0.026007  0.021865      2.000000
 -0.067555 -0.013005  0.021865      2.000000
 -0.045036 -0.000002  0.021865      2.000000
 -0.022517  0.013000  0.021865      2.000000
  0.000002  0.052006  0.021865      2.000000
[...]
  0.067559  0.117016  0.043730      2.000000
  0.090078  0.130019  0.043730      2.000000
 -0.090071  0.025999  0.043730      2.000000
 -0.067552  0.039001  0.043730      2.000000
 -0.045034  0.052004  0.043730      2.000000
 -0.022515  0.065006  0.043730      2.000000
  0.000005  0.104012  0.043730      2.000000
  0.022523  0.117014  0.043730      2.000000
  0.045042  0.130017  0.043730      2.000000
  0.067561  0.143019  0.043730      2.000000
  0.090079  0.156022  0.043730      2.000000
 -0.090070  0.052002  0.043730      2.000000
 -0.067551  0.065004  0.043730      2.000000
 -0.045033  0.078007  0.043730      2.000000
 -0.022514  0.091009  0.043730      2.000000

[...]
      21 -49.0716      22 -49.0716      23 -49.0716      24 -49.0716      25 -49.0718
      26 -49.0718      27 -49.0718      28 -49.0720      29 -49.0725      30 -49.0726
      31 -49.0726      32 -49.0724

 E-fermi :   6.1480     XC(G=0): -11.3968     alpha+bet :-13.3257

 k-point     1 :       0.0000    0.0000    0.0000
  band No.  band energies     occupation
      1     -13.7197      2.00000
      2     -13.2978      2.00000
      3     -13.2966      2.00000
      4     -12.7917      2.00000
      5      -8.2667      2.00000
      6      -8.2654      2.00000
      7      -8.2640      2.00000
      8      -8.0389      2.00000
      9      -8.0351      2.00000
     10      -8.0345      2.00000
     11      -8.0341      2.00000
     12      -8.0335      2.00000
     13      -8.0297      2.00000
     14      -7.9246      2.00000
     15      -7.9220      2.00000
     16      -7.9188      2.00000
     17      -7.0124      2.00000
     18      -7.0083      2.00000
     19      -7.0060      2.00000
     20      -6.9926      2.00000
     21      -6.9893      2.00000
     22      -6.9882      2.00000
     23      -6.9878      2.00000
     24      -6.9873      2.00000
     25      -6.9826      2.00000
     26      -6.7701      2.00000
     27      -6.7670      2.00000
     28      -6.7652      2.00000
     29      -3.1557      2.00000
     30      -1.3441      2.00000
     31      -1.3410      2.00000
     32      -0.2507      2.00000
     33      -0.2481      2.00000
     34      -0.2437      2.00000
     35      -0.1393      2.00000
     36      -0.1350      2.00000
     37      -0.1350      2.00000
     38      -0.1342      2.00000
     39      -0.1319      2.00000
     40      -0.1278      2.00000
     41      -0.0205      2.00000
     42      -0.0179      2.00000
     43      -0.0133      2.00000
     44       0.9542      2.00000
     45       2.8076      2.00000
     46       2.8089      2.00000
     47       2.8103      2.00000
     48       3.1955      2.00000
     49       3.2076      2.00000
     50       3.2360      2.00000
     51       3.2428      2.00000
     52       3.2476      2.00000
     53       3.2546      2.00000
     54       3.2829      2.00000
     55       3.2949      2.00000
     56       3.8526      2.00000
     57       3.8589      2.00000
     58       3.8591      2.00000
     59       3.8595      2.00000
     60       3.8601      2.00000
[...]
     70       7.8440      0.00000
     71       8.0789      0.00000
     72       8.0828      0.00000
     73       8.0861      0.00000
     74       8.9944      0.00000
     75       8.9985      0.00000
     76       9.0008      0.00000
     77      12.4693      0.00000
     78      13.0271      0.00000
     79      13.0311      0.00000
     80      13.0358      0.00000
     81      13.5699      0.00000
     82      13.5754      0.00000
     83      13.5755      0.00000
     84      13.5781      0.00000

[...]

 k-point   146 :      -0.0000    0.3333    0     48      -1.1692      2.00000
     49      -0.8173      2.00000
     50      -0.8124      2.00000
     51      -0.7861      2.00000
     52      -0.7824      2.00000
     53      -0.6563      2.00000
     54      -0.6550      2.00000
     55      -0.4239      2.00000
     56      -0.4226      2.00000
     57       0.0572      2.00000
     58       0.0584      2.00000
     59       0.7515      2.00000
     60       0.7529      2.00000
     61       3.4187      2.00000
     62       3.4211      2.00000
     63       4.0415      2.00001
     64       4.0444      2.00001
     65       5.3667      0.00000
     66       5.3698      0.00000
     67       5.7420      0.00000
     68       5.7455      0.00000
     69       9.5348      0.00000
     70       9.5368      0.00000
     71       9.9280      0.00000
     72       9.9305      0.00000
     73      10.5980      0.00000
     74      10.6004      0.00000
     75      11.0214      0.00000
     76      11.0229      0.00000
     77      11.3098      0.00000
     78      11.3117      0.00000
     79      12.0397      0.00000
     80      12.0421      0.00000
     81      12.0903      0.00000
     82      12.0946      0.00000
     83      12.3514      0.00000
     84      12.3533      0.00000

[...]

 k-point   163 :      -0.1111    0.4444    0.5000
  band No.  band energies     occupation
      1     -13.9790      2.00000
      2     -13.9787      2.00000
      3     -13.7825      2.00000
      4     -13.7822      2.00000
      5     -12.6830      2.00000
      6     -12.6828      2.00000
      7     -12.5027      2.00000
      8     -12.5024      2.00000
      9     -11.4200      2.00000
     10     -11.4198      2.00000
     11     -11.2558      2.00000
     12     -11.2556      2.00000
     13      -9.6282      2.00000
     14      -9.6279      2.00000
     15      -9.4925      2.00000
     16      -9.4922      2.00000
     17      -7.1390      2.00000
     18      -7.1372      2.00000
     19      -7.0448      2.00000
     20      -7.0430      2.00000
     21      -5.4806      2.00000
     22      -5.4791      2.00000
     23      -5.3963      2.00000
     24      -5.3949      2.00000
     25      -4.4816      2.00000
     26      -4.4800      2.00000
     27      -4.4128      2.00000
     28      -4.4112      2.00000
     29      -4.2293      2.00000
     30      -4.2289      2.00000
     31      -4.1461      2.00000
     32      -4.1456      2.00000
     33      -3.0379      2.00000
     34      -3.0361      2.00000
     35      -2.9818      2.00000
     36      -2.9799      2.00000
     37      -2.4494      2.00000
     38      -2.4483      2.00000
     39      -1.3737      2.00000
     40      -1.3722      2.00000
     41      -1.3248      2.00000
     42      -1.3232      2.00000
     43      -1.1448      2.00000
     44      -1.1434      2.00000
     45      -1.1158      2.00000
     46      -1.1156      2.00000
     47      -1.0769      2.00000
     48      -1.0767      2.00000
     49      -0.9246      2.00000
     50      -0.9235      2.00000
     51       0.0135      2.00000
     52       0.0152      2.00000
     53       0.0436      2.00000
     54       0.0453      2.00000
     55       0.2819      2.00000
     56       0.2832      2.00000
     57       0.5291      2.00000
     58       0.5304      2.00000
     59       1.6161      2.00000
     60       1.6175      2.00000
[...]
     70       8.1767      0.00000
     71       8.6578      0.00000
     72       8.6594      0.00000
     73      10.0036      0.00000
     74      10.0059      0.00000
     75      10.5573      0.00000
     76      10.5585      0.00000
     77      10.7944      0.00000
     78      10.7962      0.00000
     79      12.2857      0.00000
     80      12.2894      0.00000
     81      12.7048      0.00000
     82      12.7057      0.00000
     83      12.9987      0.00000
     84      13.0170      0.00000

 soft charge-density along one line, spin component           1
         0         1         2         3         4         5         6         7         8         9
 total charge-density along one line

------------------------ aborting loop because EDIFF is reached ----------------------------------------

         DFTD3 V3.0 Rev 1
 IVDW         = 11
 DF pbe
 parameters
 VDW_S6       =    1.0000
 VDW_S8       =    0.7220
 VDW_SR       =    1.2170
 rs18     =    1.0000
 alpha6   =   14.0000
 alpha8   =   16.0000
 k1-k3    =   16.0000    1.3333   -4.0000
 VDW_RADIUS   =   50.2022 A
 VDW_CNRADIUS =   21.1671 A
 Edisp (eV)   -3.05792

 E6    (eV) :    -1.9163
 E8    (eV) :    -1.1417
 % E8        : 37.33

  FORCE on cell =-STRESS in cart. coord.  units (eV):
  Direction    XX          YY          ZZ          XY          YZ          ZX
  Alpha Z   294.18504   294.18504   294.18504
  Ewald     626.76950   626.37125 -4927.86340    -1.09886     0.00005    -0.00820
  Hartree  1292.40866  1292.36071 -1111.83366    -0.14538     0.00003    -0.00184
  E(xc)    -467.48806  -467.49022  -484.61879    -0.00474     0.00003    -0.00008
  Local   -3542.65779 -3542.28584  4147.17864     1.03600     0.00002     0.00790
  n-local  -112.27295  -112.28829  -102.60361    -0.01900     0.00007    -0.00024
  augment   -12.35139   -12.35072   -11.32389     0.00177    -0.00000     0.00002
  Kinetic  1920.84610  1920.98410  2202.37139     0.24049    -0.00097     0.00485
  Fock        0.00000     0.00000     0.00000     0.00000     0.00000     0.00000
  vdW        -0.54609    -0.54549    -4.16458     0.00071     0.00000    -0.00001
  Total      -1.10699    -1.05946     1.32714     0.01098    -0.00078     0.00240
  in kB      -6.25348    -5.98498     7.49716     0.06204    -0.00440     0.01357

 VOLUME and BASIS-vectors are now :
  energy-cutoff  :      600.00
  volume of cell :      283.62
      direct lattice vectors                 reciprocal lattice vectors
     4.934310885 -0.000222400  0.000000000     0.202667819  0.117022500  0.000000000
    -2.467348046  4.273127376  0.000000000     0.000010548  0.234026730  0.000000000
     0.000000000  0.000000000 13.451484625     0.000000000  0.000000000  0.074341237

  length of vectors
     4.934310890  4.934310890 13.451484625     0.234026730  0.234026730  0.074341237

 FORCES acting on ions
    electron-ion (+dipol)            ewald-force                    non-local-force                 convergence-correction
   0.748E+00 -.253E-02 -.170E+01   -.869E+00 0.533E-02 0.175E+01   -.960E-01 0.137E-02 -.174E+00   -.271E-04 0.905E-05 -.167E-01
   -.200E+00 0.368E-03 0.402E+00   0.215E+00 0.151E-02 -.368E+00   0.160E-01 0.126E-02 -.222E-01   -.511E-05 0.111E-04 -.165E-01
   -.258E-01 0.101E+00 0.402E+00   0.161E-01 -.113E+00 -.368E+00   0.524E-02 -.502E-02 -.223E-01   -.236E-04 0.322E-05 -.165E-01
   -.259E-01 -.999E-01 0.402E+00   0.161E-01 0.116E+00 -.368E+00   0.533E-02 0.734E-02 -.222E-01   -.200E-04 0.220E-04 -.165E-01
   -.122E-02 0.464E-03 -.113E+00   -.277E-02 0.152E-02 0.964E-01   -.223E-02 0.119E-02 0.180E-02   -.229E-04 0.146E-04 0.165E-01
   -.140E-02 0.465E-03 -.112E+00   -.256E-02 0.152E-02 0.956E-01   -.224E-02 0.119E-02 0.182E-02   -.231E-04 0.146E-04 0.165E-01
   -.131E-02 0.518E-03 -.112E+00   -.267E-02 0.146E-02 0.956E-01   -.223E-02 0.119E-02 0.182E-02   -.234E-04 0.137E-04 0.165E-01
   -.131E-02 0.413E-03 -.112E+00   -.267E-02 0.158E-02 0.956E-01   -.223E-02 0.119E-02 0.182E-02   -.216E-04 0.137E-04 0.165E-01
   0.396E-03 -.443E-02 -.715E-01   0.278E-02 0.260E-02 0.822E-01   0.201E-02 -.129E-02 -.185E-02   0.209E-04 -.131E-04 -.109E-01
   0.326E-03 0.362E-02 -.713E-01   0.278E-02 -.569E-02 0.822E-01   0.189E-02 -.113E-02 -.212E-02   0.201E-04 -.147E-04 -.109E-01
   -.661E-02 -.347E-03 -.715E-01   0.996E-02 -.155E-02 0.822E-01   0.181E-02 -.111E-02 -.198E-02   0.217E-04 -.142E-04 -.109E-01
   0.831E-02 -.392E-03 -.128E+00   -.535E-02 -.155E-02 0.139E+00   0.204E-02 -.117E-02 -.160E-02   0.193E-04 -.142E-04 -.109E-01
   0.809E-03 -.422E-02 -.933E-01   0.277E-02 0.249E-02 0.824E-01   0.206E-02 -.121E-02 -.213E-02   0.336E-04 -.304E-04 0.109E-01
   0.864E-03 0.362E-02 -.935E-01   0.278E-02 -.558E-02 0.824E-01   0.217E-02 -.105E-02 -.187E-02   0.336E-04 -.317E-04 0.109E-01
   -.595E-02 -.356E-03 -.933E-01   0.977E-02 -.155E-02 0.823E-01   0.198E-02 -.122E-02 -.200E-02   0.358E-04 -.270E-04 0.109E-01
   0.855E-02 -.327E-03 -.149E+00   -.513E-02 -.155E-02 0.139E+00   0.221E-02 -.116E-02 -.152E-02   0.317E-04 -.272E-04 0.109E-01
   -.775E-01 -.251E-03 0.339E+00   0.791E-01 -.130E-02 -.321E+00   0.258E-02 -.103E-02 0.105E-01   0.903E-04 -.507E-04 -.166E-01
   0.234E+00 0.746E-02 0.860E+00   -.229E+00 -.990E-02 -.877E+00   0.273E-01 -.770E-03 0.798E-01   0.102E-03 -.521E-04 -.166E-01
   -.334E+00 -.327E+00 0.857E+00   0.392E+00 0.356E+00 -.872E+00   0.187E-01 -.594E-02 0.796E-01   0.959E-04 -.550E-04 -.166E-01
   -.323E+00 0.322E+00 0.864E+00   0.381E+00 -.355E+00 -.881E+00   0.198E-01 0.339E-02 0.801E-01   0.924E-04 -.471E-04 -.165E-01
   0.388E-03 0.275E-04 -.112E+00   0.274E-02 -.154E-02 0.956E-01   0.195E-02 -.103E-02 -.429E-03   0.107E-03 -.628E-04 0.165E-01
   0.498E-03 0.284E-04 -.112E+00   0.264E-02 -.154E-02 0.959E-01   0.194E-02 -.103E-02 -.419E-03   0.107E-03 -.638E-04 0.165E-01
   0.443E-03 -.260E-05 -.112E+00   0.269E-02 -.151E-02 0.959E-01   0.194E-02 -.103E-02 -.419E-03   0.107E-03 -.629E-04 0.165E-01
   0.440E-03 0.609E-04 -.112E+00   0.269E-02 -.157E-02 0.959E-01   0.194E-02 -.103E-02 -.417E-03   0.107E-03 -.625E-04 0.165E-01
   0.201E-01 -.943E-02 -.835E-01   -.227E-01 0.109E-01 0.942E-01   -.171E-02 0.107E-02 0.923E-03   -.918E-04 0.537E-04 -.109E-01
   -.202E-01 -.140E-01 -.982E-01   0.180E-01 0.157E-01 0.109E+00   -.169E-02 0.969E-03 0.585E-03   -.903E-04 0.544E-04 -.109E-01
   0.387E-02 0.232E-01 -.908E-01   -.650E-02 -.219E-01 0.102E+00   -.161E-02 0.100E-02 0.760E-03   -.920E-04 0.527E-04 -.109E-01
   -.302E-02 -.732E-04 -.663E-01   0.787E-03 0.156E-02 0.770E-01   -.184E-02 0.102E-02 0.237E-03   -.901E-04 0.540E-04 -.109E-01
   -.202E-01 0.135E-01 -.120E+00   0.177E-01 -.123E-01 0.109E+00   -.174E-02 0.104E-02 0.604E-03   -.119E-03 0.744E-04 0.109E-01
   0.197E-01 0.912E-02 -.105E+00   -.225E-01 -.772E-02 0.943E-01   -.178E-02 0.936E-03 0.941E-03   -.115E-03 0.769E-04 0.109E-01
   0.357E-02 -.231E-01 -.112E+00   -.641E-02 0.248E-01 0.102E+00   -.167E-02 0.102E-02 0.764E-03   -.118E-03 0.745E-04 0.109E-01
   -.315E-02 -.151E-03 -.883E-01   0.709E-03 0.155E-02 0.773E-01   -.190E-02 0.100E-02 0.271E-03   -.116E-03 0.764E-04 0.109E-01
   -.919E-04 0.438E-04 -.444E-02   0.145E-13 -.556E-14 0.354E-13   0.199E-04 -.212E-04 0.522E-02   0.243E-04 -.102E-04 -.535E-03

 POSITION                                       TOTAL-FORCE (eV/Angst)
      2.47060     -0.00011      1.69082        -0.217374      0.004176     -0.135127
      4.93431     -0.00022      1.68144         0.031841      0.003151     -0.004889
      1.23348      2.13645      1.68144        -0.004290     -0.017706     -0.004825
      3.70064      2.13634      1.68144        -0.004391      0.024076     -0.004966
      2.46715     -0.00011      8.40718        -0.006239      0.003189      0.002023
      4.93431     -0.00022      8.40718        -0.006219      0.003191      0.002053
      1.23348      2.13645      8.40718        -0.006228      0.003184      0.002053
      3.70064      2.13634      8.40718        -0.006229      0.003195      0.002053
     -1.23367      2.13656      5.04431         0.005206     -0.003127     -0.002068
      1.23348      2.13645      5.04431         0.005024     -0.003218     -0.002134
     -2.46735      4.27313      5.04431         0.005193     -0.003015     -0.002101
     -0.00019      4.27302      5.04431         0.005011     -0.003126     -0.001335
     -1.23367      2.13656     11.77005         0.005679     -0.002959     -0.002167
      1.23348      2.13645     11.77005         0.005848     -0.003048     -0.002104
     -2.46735      4.27313     11.77005         0.005838     -0.003152     -0.002135
     -0.00019      4.27302     11.77005         0.005657     -0.003058     -0.001291
     -0.00019      1.42441      1.68144         0.004341     -0.002629      0.012058
      2.46696      1.42430      1.68144         0.031680     -0.003264      0.047078
     -1.23387      3.56098      1.68144         0.076811      0.023372      0.047495
      1.23329      3.56086      1.68144         0.077188     -0.028958      0.046608
     -0.00019      1.42441      8.40718         0.005186     -0.002602     -0.000286
      2.46696      1.42430      8.40718         0.005186     -0.002600     -0.000269
     -1.23387      3.56098      8.40718         0.005185     -0.002601     -0.000270
      1.23329      3.56086      8.40718         0.005185     -0.002601     -0.000269
      1.23367      0.71204      5.04431        -0.004491      0.002644      0.000748
      3.70083      0.71193      5.04431        -0.003989      0.002753      0.000792
     -0.00000      2.84860      5.04431        -0.004335      0.002268      0.000776
      2.46715      2.84849      5.04431        -0.004162      0.002553      0.000088
      1.23367      0.71204     11.77005        -0.004308      0.002300      0.000793
      3.70083      0.71193     11.77005        -0.004736      0.002410      0.000750
     -0.00000      2.84860     11.77005        -0.004619      0.002727      0.000764
      2.46715      2.84849     11.77005        -0.004449      0.002477      0.000105
    total drift:                               -0.000048      0.000012      0.000249

  FREE ENERGIE OF THE ION-ELECTRON SYSTEM (eV)
  free  energy   TOTEN  =      -297.74170558 eV

  energy  without entropy=     -297.74170558  energy(sigma->0) =     -297.74170558

 BZINTS: Fermi energy:  4.646090;128.000000 electrons
         Band energy:-569.707135;  BLOECHL correction: -0.000001