 vasp.5.3.5 31Mar14 (build Nov 02 2014 15:17:37) complex

 executed on        ion-Intel-MKL date 2016.08.14  08:46:21

 INCAR:
 POTCAR:   PAW_PBE C 08Apr2002
 POTCAR:   PAW_PBE C 08Apr2002
   VRHFIN =C: s2p2

   TITEL  = PAW_PBE C 08Apr2002
   POMASS =   12.011; ZVAL   =    4.000    mass and valenz
   ENMAX  =  400.000; ENMIN  =  300.000 eV
   QCUT   =   -5.516; QGAM   =   11.032    optimization parameters

   Description
     l     E      TYP  RCUT    TYP  RCUT
     0   .000     23  1.200
     0   .000     23  1.200
     1   .000     23  1.500
     1  2.500     23  1.500
     2   .000      7  1.500

 PAW_PBE C 08Apr2002                    :

 POSCAR: CIF file
  positions in direct lattice
  velocities in cartesian coordinates
 exchange correlation table for  LEXCH =        8
   RHO(1)=    0.500       N(1)  =     2000
   RHO(2)=  100.500       N(2)  =     4000

 ion  position               nearest neighbor table
   1  1.000  0.000  0.250-   3 1.42   3 1.42   3 1.42
   2  0.000  1.000  0.750-   4 1.42   4 1.42   4 1.42
   3  0.333  0.667  0.250-   1 1.42   1 1.42   1 1.42
   4  0.667  0.333  0.750-   2 1.42   2 1.42   2 1.42

  LATTYP: Found a base centered orthorhombic cell.
 ALAT       =     2.4669628383
 B/A-ratio  =     1.7322311103
 C/A-ratio  =     3.5705572906

  Lattice vectors:

 A1 = (   2.4671554424,  -0.0001112000,   0.0000000000)
 A2 = (  -1.2336740232,   2.1365636881,   0.0000000000)
 A3 = (   0.0000000000,   0.0000000000,   8.8084321480)

Analysis of symmetry for initial positions (statically):
 Subroutine PRICEL returns:
 Original cell was already a primitive cell.

 Routine SETGRP: Setting up the symmetry group for a
 base centered orthorhombic supercell.

 Subroutine GETGRP returns: Found  8 space group operations
 (whereof  4 operations were pure point group operations)
 out of a pool of  8 trial point group operations.

The static configuration has the point symmetry C_2h.
 The point group associated with its full space group is D_2h.

Analysis of symmetry for dynamics (positions and initial velocities):
 Subroutine PRICEL returns:
 Original cell was already a primitive cell.

 Routine SETGRP: Setting up the symmetry group for a
 base centered orthorhombic supercell.

 Subroutine GETGRP returns: Found  8 space group operations
 (whereof  4 operations were pure point group operations)
 out of a pool of  8 trial point group operations.

The dynamic configuration has the point symmetry C_2h.
 The point group associated with its full space group is D_2h.

 KPOINTS: B4C B11C-CBC

Automatic generation of k-mesh.
Space group operators:
 irot       det(A)        alpha          n_x          n_y          n_z        tau_x        tau_y        tau_z
    1     1.000000     0.000001     1.000000     0.000000     0.000000     0.000000     0.000000     0.000000
    2    -1.000000     0.000001     1.000000     0.000000     0.000000     0.000000     0.000000     0.000000
    3     1.000000   180.000000    -0.500000    -0.866025     0.000000     0.000000     0.000000     0.000000
    4    -1.000000   180.000000    -0.500000    -0.866025     0.000000     0.000000     0.000000     0.000000
    5     1.000000   179.999999     0.000000     0.000000     1.000000     0.000000     0.000000     0.500000
    6    -1.000000   179.999999     0.000000     0.000000     1.000000     0.000000     0.000000     0.500000
    7     1.000000   180.000000     0.866025    -0.500000     0.000000     0.000000     0.000000     0.500000
    8    -1.000000   180.000000     0.866025    -0.500000     0.000000     0.000000     0.000000     0.500000

 Subroutine IBZKPT returns following result:

 Found    455 irreducible k-points:

 Following reciprocal coordinates:
            Coordinates               Weight
  0.000000  0.000000  0.000000      1.000000
  0.055556  0.000000  0.000000      4.000000
  0.111111  0.000000  0.000000      4.000000
  0.166667 -0.000000  0.000000      4.000000
  0.222222  0.000000  0.000000      4.000000
  0.277778  0.000000  0.000000      4.000000
  0.333333 -0.000000  0.000000      4.000000
  0.388889 -0.000000  0.000000      4.000000
  0.444444  0.000000  0.000000      4.000000
  0.500000  0.000000  0.000000      2.000000
  0.055556  0.055556  0.000000      2.000000
  0.111111  0.055556  0.000000      4.000000
  0.166667  0.055556  0.000000      4.000000
  0.222222  0.055556  0.000000      4.000000
  0.277778  0.055556  0.000000      4.000000
  0.333333  0.055556  0.000000      4.000000
  0.388889  0.055556  0.000000      4.000000
  0.444444  0.055556  0.000000      4.000000
  0.500000  0.055556  0.000000      4.000000
 -0.444444  0.055556  0.000000      4.000000
 -0.388889  0.055556  0.000000      4.000000
 -0.333333  0.055556  0.000000      4.000000
 -0.277778  0.055556  0.000000      4.000000
 -0.222222  0.055556  0.000000      4.000000
 -0.166667  0.055556  0.000000      4.000000
 -0.111111  0.055556  0.000000      4.000000
 -0.055556  0.055556  0.000000      2.000000
  0.111111  0.111111  0.000000      2.000000
  0.166667  0.111111  0.000000      4.000000
  0.222222  0.111111  0.000000      4.000000
  0.277778  0.111111  0.000000      4.000000
  0.333333  0.111111  0.000000      4.000000
  0.388889  0.111111  0.000000      4.000000
  0.444444  0.111111  0.000000      4.000000
  0.500000  0.111111  0.000000      4.000000
 -0.444444  0.111111  0.000000      4.000000
 -0.388889  0.111111  0.000000      4.000000
 -0.333333  0.111111  0.000000      4.000000
 -0.277778  0.111111  0.000000      4.000000
 -0.222222  0.111111  0.000000      4.000000
 -0.166667  0.111111  0.000000      4.000000
 -0.111111  0.111111  0.000000      2.000000
  0.166667  0.166667  0.000000      2.000000
  0.222222  0.166667  0.000000      4.000000
  0.277778  0.166667  0.000000      4.000000
  0.333333  0.166667  0.000000      4.000000
  0.388889  0.166667  0.000000      4.000000
  0.444444  0.166667  0.000000      4.000000
  0.500000  0.166667  0.000000      4.000000
 -0.444444  0.166667  0.000000      4.000000
 -0.388889  0.166667  0.000000      4.000000
 -0.333333  0.166667  0.000000      4.000000
 -0.277778  0.166667  0.000000      4.000000
 -0.222222  0.166667  0.000000      4.000000
 -0.166667  0.166667  0.000000      2.000000
  0.222222  0.222222  0.000000      2.000000
  0.277778  0.222222  0.000000      4.000000
  0.333333  0.222222  0.000000      4.000000
  0.388889  0.222222  0.000000      4.000000
  0.444444  0.222222  0.000000      4.000000
[...]
  0.388889  0.333333  0.500000      4.000000
  0.444444  0.333333  0.500000      4.000000
  0.500000  0.333333  0.500000      4.000000
 -0.444444  0.333333  0.500000      4.000000
 -0.388889  0.333333  0.500000      4.000000
 -0.333333  0.333333  0.500000      2.000000
  0.388889  0.388889  0.500000      2.000000
  0.444444  0.388889  0.500000      4.000000
  0.500000  0.388889  0.500000      4.000000
 -0.444444  0.388889  0.500000      4.000000
 -0.388889  0.388889  0.500000      2.000000
  0.444444  0.444444  0.500000      2.000000
  0.500000  0.444444  0.500000      4.000000
 -0.444444  0.444444  0.500000      2.000000
  0.500000  0.500000  0.500000      1.000000

 Following cartesian coordinates:
            Coordinates               Weight
  0.000000  0.000000  0.000000      1.000000
  0.022519  0.013002  0.000000      4.000000
  0.045037  0.026005  0.000000      4.000000
  0.067556  0.039007  0.000000      4.000000
  0.090075  0.052010  0.000000      4.000000
  0.112593  0.065012  0.000000      4.000000
  0.135112  0.078015  0.000000      4.000000
  0.157631  0.091017  0.000000      4.000000
  0.180149  0.104020  0.000000      4.000000
  0.202668  0.117022  0.000000      2.000000
  0.022520  0.039005  0.000000      2.000000
  0.045038  0.052008  0.000000      4.000000
  0.067557  0.065010  0.000000      4.000000
  0.090076  0.078013  0.000000      4.000000
  0.112594  0.091015  0.000000      4.000000
  0.135113  0.104018  0.000000      4.000000
  0.157632  0.117020  0.000000      4.000000
  0.180150  0.130023  0.000000      4.000000
  0.202669  0.143025  0.000000      4.000000
 -0.180148 -0.078017  0.000000      4.000000
 -0.157629 -0.065015  0.000000      4.000000
 -0.135111 -0.052012  0.000000      4.000000
 -0.112592 -0.039010  0.000000      4.000000
 -0.090073 -0.026007  0.000000      4.000000
 -0.067555 -0.013005  0.000000      4.000000
 -0.045036 -0.000002  0.000000      4.000000
 -0.022517  0.013000  0.000000      2.000000
  0.045040  0.078011  0.000000      2.000000
  0.067558  0.091013  0.000000      4.000000
  0.090077  0.104016  0.000000      4.000000
  0.112596  0.117018  0.000000      4.000000
  0.135114  0.130021  0.000000      4.000000
  0.157633  0.143023  0.000000      4.000000
  0.180152  0.156026  0.000000      4.000000
  0.202670  0.169028  0.000000      4.000000
 -0.180147 -0.052014  0.000000      4.000000
 -0.157628 -0.039012  0.000000      4.000000
 -0.135110 -0.026009  0.000000      4.000000
 -0.112591 -0.013007  0.000000      4.000000
 -0.090072 -0.000004  0.000000      4.000000
 -0.067554  0.012998  0.000000      4.000000
 -0.045035  0.026001  0.000000      2.000000
  0.067559  0.117016  0.000000      2.000000
  0.090078  0.130019  0.000000      4.000000
  0.112597  0.143021  0.000000      4.000000
  0.135115  0.156024  0.000000      4.000000
  0.157634  0.169026  0.000000      4.000000
  0.180153  0.182029  0.000000      4.000000
  0.202671  0.195031  0.000000      4.000000
 -0.180146 -0.026011  0.000000      4.000000
 -0.157627 -0.013009  0.000000      4.000000
 -0.135108 -0.000006  0.000000      4.000000
 -0.112590  0.012996  0.000000      4.000000
 -0.090071  0.025999  0.000000      4.000000
 -0.067552  0.039001  0.000000      2.000000
  0.090079  0.156022  0.000000      2.000000
  0.112598  0.169024  0.000000      4.000000
  0.135117  0.182027  0.000000      4.000000
  0.157635  0.195029  0.000000      4.000000
  0.180154  0.208032  0.000000      4.000000
[...]
  0.157638  0.247035  0.056764      4.000000
  0.180156  0.260038  0.056764      4.000000
  0.202675  0.273040  0.056764      4.000000
 -0.180142  0.051998  0.056764      4.000000
 -0.157623  0.065000  0.056764      4.000000
 -0.135105  0.078003  0.056764      2.000000
  0.157639  0.273038  0.056764      2.000000
  0.180157  0.286041  0.056764      4.000000
  0.202676  0.299043  0.056764      4.000000
 -0.180141  0.078001  0.056764      4.000000
 -0.157622  0.091003  0.056764      2.000000
  0.180159  0.312044  0.056764      2.000000
  0.202677  0.325046  0.056764      4.000000
 -0.180140  0.104004  0.056764      2.000000
  0.202678  0.351049  0.056764      1.000000

 TETIRR: Found   3888 inequivalent tetrahedra from    15552

 I would recommend the setting:
   dimension x,y,z NGX =    20 NGY =   20 NGZ =   70
 SYSTEM =  graphite
 POSCAR =  CIF file

 Startparameter for this run:
   NWRITE =      2    write-flag & timer
   PREC   = accura    normal or accurate (medium, high low for compatibility)
   ISTART =      0    job   : 0-new  1-cont  2-samecut
   ICHARG =      2    charge: 1-file 2-atom 10-const
   ISPIN  =      1    spin polarized calculation?
   LNONCOLLINEAR =      F non collinear calculations
   LSORBIT =      F    spin-orbit coupling
[...]
 k-point 23 :  -0.2778 0.0556 0.0000  plane waves:    1543
 k-point 24 :  -0.2222 0.0556 0.0000  plane waves:    1549
 k-point 25 :  -0.1667 0.0556 0.0000  plane waves:    1534
 k-point 26 :  -0.1111 0.0556 0.0000  plane waves:    1521
 k-point 27 :  -0.0556 0.0556 0.0000  plane waves:    1521
 k-point 28 :   0.1111 0.1111 0.0000  plane waves:    1541
 k-point 29 :   0.1667 0.1111 0.0000  plane waves:    1540
 k-point 30 :   0.2222 0.1111 0.0000  plane waves:    1545
 k-point 31 :   0.2778 0.1111 0.0000  plane waves:    1542
 k-point 32 :   0.3333 0.1111 0.0000  plane waves:    1551
 k-point 33 :   0.3889 0.1111 0.0000  plane waves:    1561
 k-point 34 :   0.4444 0.1111 0.0000  plane waves:    1569
 k-point 35 :   0.5000 0.1111 0.0000  plane waves:    1561
 k-point 36 :  -0.4444 0.1111 0.0000  plane waves:    1551
 k-point 37 :  -0.3889 0.1111 0.0000  plane waves:    1542
 k-point 38 :  -0.3333 0.1111 0.0000  plane waves:    1545
 k-point 39 :  -0.2778 0.1111 0.0000  plane waves:    1540
 k-point 40 :  -0.2222 0.1111 0.0000  plane waves:    1541
 k-point 41 :  -0.1667 0.1111 0.0000  plane waves:    1534
 k-point 42 :  -0.1111 0.1111 0.0000  plane waves:    1529
 k-point 43 :   0.1667 0.1667 0.0000  plane waves:    1553
 k-point 44 :   0.2222 0.1667 0.0000  plane waves:    1538
 k-point 45 :   0.2778 0.1667 0.0000  plane waves:    1553
 k-point 46 :   0.3333 0.1667 0.0000  plane waves:    1555
 k-point 47 :   0.3889 0.1667 0.0000  plane waves:    1563
 k-point 48 :   0.4444 0.1667 0.0000  plane waves:    1563
 k-point 49 :   0.5000 0.1667 0.0000  plane waves:    1555
 k-point 50 :  -0.4444 0.1667 0.0000  plane waves:    1553
 k-point 51 :  -0.3889 0.1667 0.0000  plane waves:    1538
 k-point 52 :  -0.3333 0.1667 0.0000  plane waves:    1553
 k-point 53 :  -0.2778 0.1667 0.0000  plane waves:    1540
 k-point 54 :  -0.2222 0.1667 0.0000  plane waves:    1549
 k-point 55 :  -0.1667 0.1667 0.0000  plane waves:    1549
 k-point 56 :   0.2222 0.2222 0.0000  plane waves:    1549
 k-point 57 :   0.2778 0.2222 0.0000  plane waves:    1566
 k-point 58 :   0.3333 0.2222 0.0000  plane waves:    1570
 k-point 59 :   0.3889 0.2222 0.0000  plane waves:    1567
 k-point 60 :   0.4444 0.2222 0.0000  plane waves:    1570
[...]
 k-point 85 :   0.5000 0.3889 0.0000  plane waves:    1561
 k-point 86 :  -0.4444 0.3889 0.0000  plane waves:    1548
 k-point 87 :  -0.3889 0.3889 0.0000  plane waves:    1542
 k-point 88 :   0.4444 0.4444 0.0000  plane waves:    1569
 k-point 89 :   0.5000 0.4444 0.0000  plane waves:    1554
 k-point 90 :  -0.4444 0.4444 0.0000  plane waves:    1552
 k-point 91 :   0.5000 0.5000 0.0000  plane waves:    1548
 k-point 92 :   0.0000 0.0000 0.1250  plane waves:    1523
 k-point 93 :   0.0556 0.0000 0.1250  plane waves:    1522
 k-point 94 :   0.1111 0.0000 0.1250  plane waves:    1528
 k-point 95 :   0.1667-0.0000 0.1250  plane waves:    1545
 k-point 96 :   0.2222 0.0000 0.1250  plane waves:    1547
 k-point 97 :   0.2778 0.0000 0.1250  plane waves:    1540
 k-point 98 :   0.3333-0.0000 0.1250  plane waves:    1542
 k-point 99 :   0.3889-0.0000 0.1250  plane waves:    1553
 k-point ** :   0.4444 0.0000 0.1250  plane waves:    1555
 k-point ** :   0.5000 0.0000 0.1250  plane waves:    1550
 k-point ** :   0.0556 0.0556 0.1250  plane waves:    1522
 k-point ** :   0.1111 0.0556 0.1250  plane waves:    1536
 k-point ** :   0.1667 0.0556 0.1250  plane waves:    1548
 k-point ** :   0.2222 0.0556 0.1250  plane waves:    1542
 k-point ** :   0.2778 0.0556 0.1250  plane waves:    1538
 k-point ** :   0.3333 0.0556 0.1250  plane waves:    1547
 k-point ** :   0.3889 0.0556 0.1250  plane waves:    1547
 k-point ** :   0.4444 0.0556 0.1250  plane waves:    1554
 k-point ** :   0.5000 0.0556 0.1250  plane waves:    1554
 k-point ** :  -0.4444 0.0556 0.1250  plane waves:    1547
 k-point ** :  -0.3889 0.0556 0.1250  plane waves:    1547
 k-point ** :  -0.3333 0.0556 0.1250  plane waves:    1537
 k-point ** :  -0.2778 0.0556 0.1250  plane waves:    1542
 k-point ** :  -0.2222 0.0556 0.1250  plane waves:    1548
 k-point ** :  -0.1667 0.0556 0.1250  plane waves:    1536
 k-point ** :  -0.1111 0.0556 0.1250  plane waves:    1522
 k-point ** :  -0.0556 0.0556 0.1250  plane waves:    1522
 k-point ** :   0.1111 0.1111 0.1250  plane waves:    1540
 k-point ** :   0.1667 0.1111 0.1250  plane waves:    1545
 k-point ** :   0.2222 0.1111 0.1250  plane waves:    1544
 k-point ** :   0.2778 0.1111 0.1250  plane waves:    1544
 k-point ** :   0.3333 0.1111 0.1250  plane waves:    1554
 k-point ** :   0.3889 0.1111 0.1250  plane waves:    1559
 k-point ** :   0.4444 0.1111 0.1250  plane waves:    1553
 k-point ** :   0.5000 0.1111 0.1250  plane waves:    1559
 k-point ** :  -0.4444 0.1111 0.1250  plane waves:    1554
 k-point ** :  -0.3889 0.1111 0.1250  plane waves:    1544
 k-point ** :  -0.3333 0.1111 0.1250  plane waves:    1544
 k-point ** :  -0.2778 0.1111 0.1250  plane waves:    1544
 k-point ** :  -0.2222 0.1111 0.1250  plane waves:    1540
 k-point ** :  -0.1667 0.1111 0.1250  plane waves:    1536
 k-point ** :  -0.1111 0.1111 0.1250  plane waves:    1528
 k-point ** :   0.1667 0.1667 0.1250  plane waves:    1541
 k-point ** :   0.2222 0.1667 0.1250  plane waves:    1542
 k-point ** :   0.2778 0.1667 0.1250  plane waves:    1553
 k-point ** :   0.3333 0.1667 0.1250  plane waves:    1563
 k-point ** :   0.3889 0.1667 0.1250  plane waves:    1564
 k-point ** :   0.4444 0.1667 0.1250  plane waves:    1564
 k-point ** :   0.5000 0.1667 0.1250  plane waves:    1563
 k-point ** :  -0.4444 0.1667 0.1250  plane waves:    1553
 k-point ** :  -0.3889 0.1667 0.1250  plane waves:    1542
 k-point ** :  -0.3333 0.1667 0.1250  plane waves:    1541
 k-point ** :  -0.2778 0.1667 0.1250  plane waves:    1543
 k-point ** :  -0.2222 0.1667 0.1250  plane waves:    1548
 k-point ** :  -0.1667 0.1667 0.1250  plane waves:    1545
 k-point ** :   0.2222 0.2222 0.1250  plane waves:    1557
 k-point ** :   0.2778 0.2222 0.1250  plane waves:    1564
 k-point ** :   0.3333 0.2222 0.1250  plane waves:    1566
 k-point ** :   0.3889 0.2222 0.1250  plane waves:    1572
 k-point ** :   0.4444 0.2222 0.1250  plane waves:    1566
 k-point ** :   0.5000 0.2222 0.1250  plane waves:    1564
 k-point ** :  -0.4444 0.2222 0.1250  plane waves:    1557
 k-point ** :  -0.3889 0.2222 0.1250  plane waves:    1542
 k-point ** :  -0.3333 0.2222 0.1250  plane waves:    1544
 k-point ** :  -0.2778 0.2222 0.1250  plane waves:    1542
 k-point ** :  -0.2222 0.2222 0.1250  plane waves:    1547
 k-point ** :   0.2778 0.2778 0.1250  plane waves:    1580
 k-point ** :   0.3333 0.2778 0.1250  plane waves:    1580
[...]
 k-point ** :   0.3889 0.3333 0.5000  plane waves:    1566
 k-point ** :   0.4444 0.3333 0.5000  plane waves:    1562
 k-point ** :   0.5000 0.3333 0.5000  plane waves:    1554
 k-point ** :  -0.4444 0.3333 0.5000  plane waves:    1560
 k-point ** :  -0.3889 0.3333 0.5000  plane waves:    1550
 k-point ** :  -0.3333 0.3333 0.5000  plane waves:    1558
 k-point ** :   0.3889 0.3889 0.5000  plane waves:    1564
 k-point ** :   0.4444 0.3889 0.5000  plane waves:    1564
 k-point ** :   0.5000 0.3889 0.5000  plane waves:    1558
 k-point ** :  -0.4444 0.3889 0.5000  plane waves:    1554
 k-point ** :  -0.3889 0.3889 0.5000  plane waves:    1558
 k-point ** :   0.4444 0.4444 0.5000  plane waves:    1560
 k-point ** :   0.5000 0.4444 0.5000  plane waves:    1552
 k-point ** :  -0.4444 0.4444 0.5000  plane waves:    1550
 k-point ** :   0.5000 0.5000 0.5000  plane waves:    1528

 maximum and minimum number of plane-waves per node :       541      495

 maximum number of plane-waves:      1581
 maximum index in each direction:
   IXMAX=    5   IYMAX=    4   IZMAX=   17
   IXMIN=   -5   IYMIN=   -5   IZMIN=  -18

 WARNING: aliasing errors must be expected set NGX to  22 to avoid them
 NGY is ok and might be reduce to  20
 WARNING: aliasing errors must be expected set NGZ to  72 to avoid them
 aliasing errors are usually negligible using standard VASP settings
 and one can safely disregard these warnings

 parallel 3D FFT for wavefunctions:
    minimum data exchange during FFTs selected (reduces bandwidth)
 parallel 3D FFT for charge:
    minimum data exchange during FFTs selected (reduces bandwidth)

 Broyden mixing: mesh for mixing (old mesh)
   NGX =  9   NGY =  9   NGZ = 35
  (NGX  = 40   NGY  = 40   NGZ  =140)
  gives a total of   2835 points

 initial charge density was supplied:
 charge density of overlapping atoms calculated
 number of electron      16.0000000 magnetization
 keeping initial charge density in first step

 Maximum index for augmentation-charges         1303 (set IRDMAX)

 First call to EWALD:  gamma=   0.493
 Maximum number of real-space cells 4x 4x 1
 Maximum number of reciprocal cells 2x 2x 6

 FEWALD executed in parallel

----------------------------------------- Iteration    1(   1)  ---------------------------------------

 BZINTS: Fermi energy: 11.995073; 16.000000 electrons
         Band energy: -36.310907;  BLOECHL correction: -0.322892

 eigenvalue-minimisations  : 10944
 total energy-change (2. order) : 0.7388186E+02  (-0.8585697E+03)
 number of electron      16.0000000 magnetization
 augmentation part       16.0000000 magnetization

 Free energy of the ion-electron system (eV)
  alpha Z        PSCENC =        28.07839055
  Ewald energy   TEWEN  =      -268.65058618
  -Hartree energ DENC   =      -288.36554931
  -exchange      EXHF   =         0.00000000
  -V(xc)+E(xc)   XCENC  =        55.13128287
  PAW double counting   =       151.32577238     -155.92769107
  entropy T*S    EENTRO =         0.00000000
  eigenvalues    EBANDS =       -36.31090740
  atomic energy  EATOM  =       588.60115103
  free energy    TOTEN  =        73.88186288 eV

  energy without entropy =       73.88186288  energy(sigma->0) =       73.88186288

[...]

 BZINTS: Fermi energy:  1.217068; 16.000000 electrons
         Band energy:-143.451485;  BLOECHL correction: -0.000088

 eigenvalue-minimisations  : 15596
 total energy-change (2. order) :-0.1071406E+03  (-0.9713995E+02)
 number of electron      16.0000000 magnetization
 augmentation part       16.0000000 magnetization

[...]

 Broyden mixing:
  rms(total) = 0.78009E+00    rms(broyden)= 0.78000E+00
  rms(prec ) = 0.10926E+01
  weight for this iteration     100.00

[...]

 eigenvalues of (default mixing * dielectric matrix)
  average eigenvalue GAMMA=   2.0382
  2.0382

[...]

 eigenvalue-minimisations  : 12516
 total energy-change (2. order) :-0.8580628E-04  (-0.1035181E-04)
 number of electron      16.0000001 magnetization
 augmentation part        0.3830166 magnetization

 Broyden mixing:
  rms(total) = 0.12176E-02    rms(broyden)= 0.12163E-02
  rms(prec ) = 0.16581E-02
  weight for this iteration     100.00

 eigenvalues of (default mixing * dielectric matrix)
  average eigenvalue GAMMA=   1.7083
  3.0576  2.3658  2.0079  1.0172  1.2281  0.5731

[...]

----------------------------------------- Iteration    1(  12)  ---------------------------------------

 BZINTS: Fermi energy:  2.569648; 16.000000 electrons
         Band energy:-104.950831;  BLOECHL correction: -0.000001

 eigenvalue-minimisations  : 14140
 total energy-change (2. order) : 0.9056671E-06  (-0.7388851E-06)
 number of electron      16.0000001 magnetization
 augmentation part        0.3830166 magnetization

 Free energy of the ion-electron system (eV)
  alpha Z        PSCENC =        28.07839055
  Ewald energy   TEWEN  =      -268.65058618
  -Hartree energ DENC   =      -332.33095234
  -exchange      EXHF   =         0.00000000
  -V(xc)+E(xc)   XCENC  =        57.52169455
  PAW double counting   =       277.30853263     -282.47143710
  entropy T*S    EENTRO =         0.00000000
  eigenvalues    EBANDS =      -104.95083086
  atomic energy  EATOM  =       588.60115103
  free energy    TOTEN  =       -36.89403773 eV

  energy without entropy =      -36.89403773  energy(sigma->0) =      -36.89403773

 average (electrostatic) potential at core
  the test charge radii are     0.6991
  (the norm of the test charge is              1.0000)
       1 -52.8609       2 -52.8609       3 -52.8617       4 -52.8617

 E-fermi :   2.5696     XC(G=0):  -8.5059     alpha+bet : -8.6487

 k-point     1 :       0.0000    0.0000    0.0000
  band No.  band energies     occupation
      1     -16.9439      2.00000
      2     -16.9181      2.00000
      3      -5.2241      2.00000
      4      -4.8384      2.00000
      5      -0.4604      2.00000
      6      -0.4597      2.00000
      7      -0.4558      2.00000
      8      -0.4551      2.00000
      9       5.5829      0.00000
     10       8.6039      0.00000
     11      10.8803      0.00000
     12      10.8834      0.00000

[...]

 k-point   455 :       0.5000    0.5000    0.5000
  band No.  band energies     occupation
      1     -11.6963      2.00000
      2     -11.6963      2.00000
      3     -10.6486      2.00000
      4     -10.6486      2.00000
      5      -3.8290      2.00000
      6      -3.8290      2.00000
      7       0.2131      2.00000
      8       0.2131      2.00000
      9       4.2435      0.00000
     10       4.2435      0.00000
     11       9.9373      0.00000
     12       9.9373      0.00000

 soft charge-density along one line, spin component           1
         0         1         2         3         4         5         6         7         8         9
 total charge-density along one line

------------------------ aborting loop because EDIFF is reached ----------------------------------------

  FORCE on cell =-STRESS in cart. coord.  units (eV):
  Direction    XX          YY          ZZ          XY          YZ          ZX
  Alpha Z    28.07839    28.07839    28.07839
  Ewald     268.89116   268.84132  -806.38328    -0.04316     0.00000     0.00000
  Hartree   309.68079   309.67121  -287.02769    -0.00829    -0.00000    -0.00000
  E(xc)     -58.33977   -58.34009   -60.67636    -0.00028     0.00000    -0.00000
  Local    -772.72010  -772.66330   865.40942     0.04919    -0.00000    -0.00000
  n-local   -14.43450   -13.68179   -12.79250    -0.21869     0.00074    -0.00066
  augment    -1.54354    -1.54346    -1.41528     0.00006    -0.00000    -0.00000
  Kinetic   243.71586   236.34240   274.72266     2.16713    -0.01297     0.01074
  Fock        0.00000     0.00000     0.00000     0.00000     0.00000     0.00000
  Total       0.00181     0.03116    -0.08462     0.02542     0.00000     0.00000
  in kB       0.06250     1.07541    -2.92015     0.87721     0.00000     0.00000

 VOLUME and BASIS-vectors are now :
  energy-cutoff  :      600.00
  volume of cell :       46.43
      direct lattice vectors                 reciprocal lattice vectors
     2.467155442 -0.000111200  0.000000000     0.405335638  0.234045000  0.000000000
    -1.233674023  2.136563688  0.000000000     0.000021096  0.468053460  0.000000000
     0.000000000  0.000000000  8.808432148     0.000000000  0.000000000  0.113527582

  length of vectors
     2.467155445  2.467155445  8.808432148     0.468053460  0.468053460  0.113527582

 FORCES acting on ions
    electron-ion (+dipol)            ewald-force                    non-local-force                 convergence-correction
   0.802E-02 -.464E-02 0.321E-12   -.265E-02 0.151E-02 -.205E-13   0.352E-03 -.203E-03 0.136E-19   -.161E-02 0.929E-03 -.148E-12
   -.803E-02 0.463E-02 0.321E-12   0.263E-02 -.154E-02 0.205E-13   -.352E-03 0.203E-03 -.136E-19   0.161E-02 -.929E-03 0.316E-13
   -.837E-02 0.484E-02 0.103E-12   0.265E-02 -.151E-02 -.205E-13   -.584E-03 0.337E-03 -.678E-20   0.160E-02 -.924E-03 -.148E-12
   0.838E-02 -.483E-02 -.155E-12   -.263E-02 0.154E-02 0.205E-13   0.584E-03 -.337E-03 0.203E-19   -.160E-02 0.924E-03 0.302E-13
   -.677E-05 -.117E-04 0.590E-12   0.831E-14 -.103E-13 0.000E+00   0.555E-16 0.111E-15 0.136E-19   -.141E-08 -.245E-08 -.234E-12

 POSITION                                       TOTAL-FORCE (eV/Angst)
      2.46715     -0.00011      2.20211         0.004132     -0.002386     -0.000000
     -1.23367      2.13656      6.60632        -0.004132      0.002386      0.000000
     -0.00019      1.42441      2.20211        -0.004717      0.002723      0.000000
      1.23367      0.71204      6.60632         0.004717     -0.002723      0.000000
    total drift:                               -0.000007     -0.000012      0.000000

  FREE ENERGIE OF THE ION-ELECTRON SYSTEM (eV)
  free  energy   TOTEN  =       -36.89403773 eV

  energy  without entropy=      -36.89403773  energy(sigma->0) =      -36.89403773

 reached required accuracy - stopping structural energy minimisation
 BZINTS: Fermi energy:  2.569648; 16.000000 electrons
         Band energy:-104.950831;  BLOECHL correction: -0.000001