 vasp.5.3.5 31Mar14 (build Nov 02 2014 15:17:37) complex

 executed on        ion-Intel-MKL date 2017.02.15  22:10:12

 INCAR:
 POTCAR:   PAW_PBE C 08Apr2002
 POTCAR:   PAW_PBE C 08Apr2002
   VRHFIN =C: s2p2

   TITEL  = PAW_PBE C 08Apr2002
   POMASS =   12.011; ZVAL   =    4.000    mass and valenz
   ENMAX  =  400.000; ENMIN  =  300.000 eV
   QCUT   =   -5.516; QGAM   =   11.032    optimization parameters

   Description
     l     E      TYP  RCUT    TYP  RCUT
     0   .000     23  1.200
     0   .000     23  1.200
     1   .000     23  1.500
     1  2.500     23  1.500
     2   .000      7  1.500

 PAW_PBE C 08Apr2002                    :

 POSCAR: C
  positions in direct lattice
 exchange correlation table for  LEXCH =        8
   RHO(1)=    0.500       N(1)  =     2000
   RHO(2)=  100.500       N(2)  =     4000

 ion  position               nearest neighbor table
   1  0.002  0.000  0.000-   9 1.59  11 1.60  13 1.60  10 1.61
   2  0.500  0.000  0.000-  10 1.60  12 1.60   9 1.60  14 1.60
   3  0.000  0.500  0.000-  11 1.60   9 1.60  12 1.60  15 1.60
   4  0.500  0.500  0.000-  12 1.60  10 1.60  11 1.60  16 1.60
   5  0.000  0.000  0.500-  13 1.60  15 1.60  14 1.60   9 1.60
   6  0.500  0.000  0.500-  14 1.60  16 1.60  13 1.60  10 1.60
   7  0.000  0.500  0.500-  15 1.60  13 1.60  16 1.60  11 1.60
   8  0.500  0.500  0.500-  16 1.60  14 1.60  15 1.60  12 1.60
   9  0.125  0.125  0.125-   1 1.59   3 1.60   2 1.60   5 1.60
  10  0.625  0.125  0.125-   2 1.60   4 1.60   6 1.60   1 1.61
  11  0.125  0.625  0.125-   3 1.60   4 1.60   7 1.60   1 1.60
  12  0.625  0.625  0.125-   4 1.60   2 1.60   3 1.60   8 1.60
  13  0.125  0.125  0.625-   5 1.60   7 1.60   6 1.60   1 1.60
  14  0.625  0.125  0.625-   6 1.60   8 1.60   5 1.60   2 1.60
  15  0.125  0.625  0.625-   7 1.60   5 1.60   8 1.60   3 1.60
  16  0.625  0.625  0.625-   8 1.60   6 1.60   7 1.60   4 1.60

  LATTYP: Found a face centered cubic cell.
 ALAT       =     7.4000000249

  Lattice vectors:

 A1 = (   5.2325901986,   0.0000000000,   0.0000000000)
 A2 = (   2.6162950992,   4.5315560396,   0.0000000000)
 A3 = (   2.6162950992,   1.5105186798,   4.2723920064)

Analysis of symmetry for initial positions (statically):
 Subroutine PRICEL returns:
 Original cell was already a primitive cell.

 Routine SETGRP: Setting up the symmetry group for a
 face centered cubic supercell.

 Subroutine GETGRP returns: Found  2 space group operations
 (whereof  2 operations were pure point group operations)
 out of a pool of 48 trial point group operations.

The static configuration has the point symmetry C_1h.

Analysis of symmetry for dynamics (positions and initial velocities):
 Subroutine PRICEL returns:
 Original cell was already a primitive cell.

 Routine SETGRP: Setting up the symmetry group for a
 face centered cubic supercell.

 Subroutine GETGRP returns: Found  2 space group operations
 (whereof  2 operations were pure point group operations)
 out of a pool of 48 trial point group operations.

The dynamic configuration has the point symmetry C_1h.

 KPOINTS: B4C B11C-CBC

Automatic generation of k-mesh.
Space group operators:
 irot       det(A)        alpha          n_x          n_y          n_z        tau_x        tau_y        tau_z
    1     1.000000     0.000000     1.000000     0.000000     0.000000     0.000000     0.000000     0.000000
    2    -1.000000   180.000000     0.000000    -0.577350     0.816497     0.000000     0.000000     0.000000

 Subroutine IBZKPT returns following result:

 Found     72 irreducible k-points:

 Following reciprocal coordinates:
            Coordinates               Weight
  0.000000  0.000000  0.000000      1.000000
  0.166667  0.000000 -0.000000      2.000000
  0.333333 -0.000000 -0.000000      2.000000
  0.500000 -0.000000 -0.000000      1.000000
  0.000000  0.166667 -0.000000      2.000000
  0.166667  0.166667 -0.000000      2.000000
  0.333333  0.166667 -0.000000      2.000000
  0.500000  0.166667 -0.000000      2.000000
 -0.333333  0.166667  0.000000      2.000000
 -0.166667  0.166667  0.000000      2.000000
  0.000000  0.333333  0.000000      2.000000
  0.166667  0.333333  0.000000      2.000000
  0.333333  0.333333 -0.000000      2.000000
  0.500000  0.333333 -0.000000      2.000000
 -0.333333  0.333333  0.000000      2.000000
 -0.166667  0.333333  0.000000      2.000000
  0.000000  0.500000 -0.000000      2.000000
  0.166667  0.500000 -0.000000      4.000000
  0.333333  0.500000 -0.000000      4.000000
  0.500000  0.500000 -0.000000      2.000000
  0.000000  0.000000  0.250000      2.000000
  0.166667  0.000000  0.250000      2.000000
  0.333333 -0.000000  0.250000      2.000000
  0.500000 -0.000000  0.250000      2.000000
 -0.333333  0.000000  0.250000      2.000000
 -0.166667 -0.000000  0.250000      2.000000
  0.000000  0.166667  0.250000      2.000000
  0.166667  0.166667  0.250000      2.000000
  0.333333  0.166667  0.250000      2.000000
  0.500000  0.166667  0.250000      2.000000
 -0.333333  0.166667  0.250000      2.000000
 -0.166667  0.166667  0.250000      2.000000
  0.000000  0.333333  0.250000      2.000000
  0.166667  0.333333  0.250000      2.000000
  0.333333  0.333333  0.250000      2.000000
  0.500000  0.333333  0.250000      2.000000
 -0.333333  0.333333  0.250000      2.000000
 -0.166667  0.333333  0.250000      2.000000
  0.000000  0.500000  0.250000      2.000000
  0.166667  0.500000  0.250000      2.000000
  0.333333  0.500000  0.250000      2.000000
  0.500000  0.500000  0.250000      2.000000
 -0.333333  0.500000  0.250000      2.000000
 -0.166667  0.500000  0.250000      2.000000
  0.000000 -0.333333  0.250000      2.000000
  0.166667 -0.333333  0.250000      2.000000
  0.333333 -0.333333  0.250000      2.000000
  0.500000 -0.333333  0.250000      2.000000
 -0.333333 -0.333333  0.250000      2.000000
 -0.166667 -0.333333  0.250000      2.000000
  0.000000 -0.166667  0.250000      2.000000
  0.166667 -0.166667  0.250000      2.000000
  0.333333 -0.166667  0.250000      2.000000
  0.500000 -0.166667  0.250000      2.000000
 -0.333333 -0.166667  0.250000      2.000000
 -0.166667 -0.166667  0.250000      2.000000
  0.000000  0.166667  0.500000      2.000000
  0.166667  0.166667  0.500000      2.000000
  0.333333  0.166667  0.500000      2.000000
  0.500000  0.166667  0.500000      2.000000
 -0.333333  0.166667  0.500000      2.000000
 -0.166667  0.166667  0.500000      2.000000
  0.000000  0.333333  0.500000      2.000000
  0.166667  0.333333  0.500000      2.000000
  0.333333  0.333333  0.500000      2.000000
  0.500000  0.333333  0.500000      2.000000
 -0.333333  0.333333  0.500000      2.000000
 -0.166667  0.333333  0.500000      2.000000
  0.000000  0.500000  0.500000      1.000000
  0.166667  0.500000  0.500000      2.000000
  0.333333  0.500000  0.500000      2.000000
  0.500000  0.500000  0.500000      1.000000

 Following cartesian coordinates:
            Coordinates               Weight
  0.000000  0.000000  0.000000      1.000000
  0.031852 -0.018390 -0.013003      2.000000
  0.063703 -0.036779 -0.026007      2.000000
  0.095555 -0.055169 -0.039010      1.000000
  0.000000  0.036779 -0.013003      2.000000
  0.031852  0.018390 -0.026007      2.000000
  0.063703  0.000000 -0.039010      2.000000
  0.095555 -0.018390 -0.052014      2.000000
 -0.063703  0.073558  0.013003      2.000000
 -0.031852  0.055169  0.000000      2.000000
  0.000000  0.073558 -0.026007      2.000000
  0.031852  0.055169 -0.039010      2.000000
  0.063703  0.036779 -0.052014      2.000000
  0.095555  0.018390 -0.065017      2.000000
 -0.063703  0.110337  0.000000      2.000000
 -0.031852  0.091948 -0.013003      2.000000
  0.000000  0.110337 -0.039010      2.000000
  0.031852  0.091948 -0.052014      4.000000
  0.063703  0.073558 -0.065017      4.000000
  0.095555  0.055169 -0.078020      2.000000
  0.000000  0.000000  0.058515      2.000000
  0.031852 -0.018390  0.045512      2.000000
  0.063703 -0.036779  0.032508      2.000000
  0.095555 -0.055169  0.019505      2.000000
 -0.063703  0.036779  0.084522      2.000000
 -0.031852  0.018390  0.071519      2.000000
  0.000000  0.036779  0.045512      2.000000
  0.031852  0.018390  0.032508      2.000000
  0.063703  0.000000  0.019505      2.000000
  0.095555 -0.018390  0.006502      2.000000
 -0.063703  0.073558  0.071519      2.000000
 -0.031852  0.055169  0.058515      2.000000
  0.000000  0.073558  0.032508      2.000000
  0.031852  0.055169  0.019505      2.000000
  0.063703  0.036779  0.006502      2.000000
  0.095555  0.018390 -0.006502      2.000000
 -0.063703  0.110337  0.058515      2.000000
 -0.031852  0.091948  0.045512      2.000000
  0.000000  0.110337  0.019505      2.000000
  0.031852  0.091948  0.006502      2.000000
  0.063703  0.073558 -0.006502      2.000000
  0.095555  0.055169 -0.019505      2.000000
 -0.063703  0.147117  0.045512      2.000000
 -0.031852  0.128727  0.032508      2.000000
  0.000000 -0.073558  0.084522      2.000000
  0.031852 -0.091948  0.071519      2.000000
  0.063703 -0.110337  0.058515      2.000000
  0.095555 -0.128727  0.045512      2.000000
 -0.063703 -0.036779  0.110529      2.000000
 -0.031852 -0.055169  0.097525      2.000000
  0.000000 -0.036779  0.071519      2.000000
  0.031852 -0.055169  0.058515      2.000000
  0.063703 -0.073558  0.045512      2.000000
  0.095555 -0.091948  0.032508      2.000000
 -0.063703 -0.000000  0.097525      2.000000
 -0.031852 -0.018390  0.084522      2.000000
  0.000000  0.036779  0.104027      2.000000
  0.031852  0.018390  0.091024      2.000000
  0.063703  0.000000  0.078020      2.000000
  0.095555 -0.018390  0.065017      2.000000
 -0.063703  0.073558  0.130034      2.000000
 -0.031852  0.055169  0.117030      2.000000
  0.000000  0.073558  0.091024      2.000000
  0.031852  0.055169  0.078020      2.000000
  0.063703  0.036779  0.065017      2.000000
  0.095555  0.018390  0.052014      2.000000
 -0.063703  0.110337  0.117030      2.000000
 -0.031852  0.091948  0.104027      2.000000
  0.000000  0.110337  0.078020      1.000000
  0.031852  0.091948  0.065017      2.000000
  0.063703  0.073558  0.052014      2.000000
  0.095555  0.055169  0.039010      1.000000

 TETIRR: Found    432 inequivalent tetrahedra from      864

 I would recommend the setting:
   dimension x,y,z NGX =    48 NGY =   48 NGZ =   48
 SYSTEM =  diamond
 POSCAR =  C

 Startparameter for this run:
   NWRITE =      2    write-flag & timer
   PREC   = accura    normal or accurate (medium, high low for compatibility)
   ISTART =      0    job   : 0-new  1-cont  2-samecut
   ICHARG =      2    charge: 1-file 2-atom 10-const
   ISPIN  =      1    spin polarized calculation?
   LNONCOLLINEAR =      F non collinear calculations
   LSORBIT =      F    spin-orbit coupling
   INIWAV =      1    electr: 0-lowe 1-rand  2-diag
   LASPH  =      F    aspherical Exc in radial PAW
   METAGGA=      F    non-selfconsistent MetaGGA calc.

 Electronic Relaxation 1
   ENCUT  =  800.0 eV  58.80 Ry    7.67 a.u.  12.07 12.07 12.07*2*pi/ulx,y,z
   ENINI  =  800.0     initial cutoff
   ENAUG  =  644.9 eV  augmentation charge cutoff
   NELM   =    200;   NELMIN=  2; NELMDL=  0     # of ELM steps
[...]
 k-point 28 :   0.1667 0.1667 0.2500  plane waves:    5187
 k-point 29 :   0.3333 0.1667 0.2500  plane waves:    5204
 k-point 30 :   0.5000 0.1667 0.2500  plane waves:    5212
 k-point 31 :  -0.3333 0.1667 0.2500  plane waves:    5207
 k-point 32 :  -0.1667 0.1667 0.2500  plane waves:    5205
 k-point 33 :   0.0000 0.3333 0.2500  plane waves:    5198
 k-point 34 :   0.1667 0.3333 0.2500  plane waves:    5204
 k-point 35 :   0.3333 0.3333 0.2500  plane waves:    5205
 k-point 36 :   0.5000 0.3333 0.2500  plane waves:    5212
 k-point 37 :  -0.3333 0.3333 0.2500  plane waves:    5211
 k-point 38 :  -0.1667 0.3333 0.2500  plane waves:    5206
 k-point 39 :   0.0000 0.5000 0.2500  plane waves:    5212
 k-point 40 :   0.1667 0.5000 0.2500  plane waves:    5212
 k-point 41 :   0.3333 0.5000 0.2500  plane waves:    5212
 k-point 42 :   0.5000 0.5000 0.2500  plane waves:    5212
 k-point 43 :  -0.3333 0.5000 0.2500  plane waves:    5206
 k-point 44 :  -0.1667 0.5000 0.2500  plane waves:    5206
 k-point 45 :   0.0000-0.3333 0.2500  plane waves:    5219
 k-point 46 :   0.1667-0.3333 0.2500  plane waves:    5207
 k-point 47 :   0.3333-0.3333 0.2500  plane waves:    5211
 k-point 48 :   0.5000-0.3333 0.2500  plane waves:    5206
 k-point 49 :  -0.3333-0.3333 0.2500  plane waves:    5214
 k-point 50 :  -0.1667-0.3333 0.2500  plane waves:    5210
 k-point 51 :   0.0000-0.1667 0.2500  plane waves:    5204
 k-point 52 :   0.1667-0.1667 0.2500  plane waves:    5205
 k-point 53 :   0.3333-0.1667 0.2500  plane waves:    5206
 k-point 54 :   0.5000-0.1667 0.2500  plane waves:    5206
 k-point 55 :  -0.3333-0.1667 0.2500  plane waves:    5210
 k-point 56 :  -0.1667-0.1667 0.2500  plane waves:    5197
 k-point 57 :   0.0000 0.1667 0.5000  plane waves:    5193
 k-point 58 :   0.1667 0.1667 0.5000  plane waves:    5206
 k-point 59 :   0.3333 0.1667 0.5000  plane waves:    5227
 k-point 60 :   0.5000 0.1667 0.5000  plane waves:    5203
 k-point 61 :  -0.3333 0.1667 0.5000  plane waves:    5214
 k-point 62 :  -0.1667 0.1667 0.5000  plane waves:    5220
 k-point 63 :   0.0000 0.3333 0.5000  plane waves:    5203
 k-point 64 :   0.1667 0.3333 0.5000  plane waves:    5227
 k-point 65 :   0.3333 0.3333 0.5000  plane waves:    5206
 k-point 66 :   0.5000 0.3333 0.5000  plane waves:    5193
 k-point 67 :  -0.3333 0.3333 0.5000  plane waves:    5220
 k-point 68 :  -0.1667 0.3333 0.5000  plane waves:    5214
 k-point 69 :   0.0000 0.5000 0.5000  plane waves:    5218
 k-point 70 :   0.1667 0.5000 0.5000  plane waves:    5203
 k-point 71 :   0.3333 0.5000 0.5000  plane waves:    5193
 k-point 72 :   0.5000 0.5000 0.5000  plane waves:    5210

 maximum and minimum number of plane-waves per node :      5237     5159

 maximum number of plane-waves:      5237
 maximum index in each direction:
   IXMAX=   12   IYMAX=   12   IZMAX=   12
   IXMIN=  -12   IYMIN=  -12   IZMIN=  -12

 WARNING: aliasing errors must be expected set NGX to  50 to avoid them
 WARNING: aliasing errors must be expected set NGY to  50 to avoid them
 WARNING: aliasing errors must be expected set NGZ to  50 to avoid them
 aliasing errors are usually negligible using standard VASP settings
 and one can safely disregard these warnings

 serial   3D FFT for wavefunctions
 parallel 3D FFT for charge:
    minimum data exchange during FFTs selected (reduces bandwidth)

 Broyden mixing: mesh for mixing (old mesh)
   NGX = 25   NGY = 25   NGZ = 25
  (NGX  = 96   NGY  = 96   NGZ  = 96)
  gives a total of  15625 points

 initial charge density was supplied:
 charge density of overlapping atoms calculated
 number of electron      64.0000000 magnetization
 keeping initial charge density in first step

 Maximum index for augmentation-charges        12527 (set IRDMAX)

 First call to EWALD:  gamma=   0.380
 Maximum number of real-space cells 3x 3x 3
 Maximum number of reciprocal cells 3x 3x 3

 FEWALD executed in parallel

----------------------------------------- Iteration    1(   1)  ---------------------------------------

 BZINTS: Fermi energy: 21.917962; 64.000000 electrons
         Band energy: 351.701666;  BLOECHL correction: -0.176380

 eigenvalue-minimisations  :  5904
 total energy-change (2. order) : 0.2726652E+03  (-0.4418693E+04)
 number of electron      64.0000000 magnetization
 augmentation part       64.0000000 magnetization

 Free energy of the ion-electron system (eV)
  alpha Z        PSCENC =       205.90016160
  Ewald energy   TEWEN  =     -2683.45239080
  -Hartree energ DENC   =      -160.92248368
  -exchange      EXHF   =         0.00000000
  -V(xc)+E(xc)   XCENC  =       223.37512180
  PAW double counting   =       605.30308954     -623.71076428
  entropy T*S    EENTRO =         0.00000000
  eigenvalues    EBANDS =       351.70166569
  atomic energy  EATOM  =      2354.47077523
  free energy    TOTEN  =       272.66517510 eV

  energy without entropy =      272.66517510  energy(sigma->0) =      272.66517510

[...]

 eigenvalue-minimisations  :  7548
 total energy-change (2. order) :-0.4014422E+03  (-0.3821946E+03)
 number of electron      64.0000000 magnetization
 augmentation part       64.0000000 magnetization

[...]

 Broyden mixing:
  rms(total) = 0.11786E+01    rms(broyden)= 0.11786E+01
  rms(prec ) = 0.24220E+01
  weight for this iteration     100.00

[...]

 eigenvalues of (default mixing * dielectric matrix)
  average eigenvalue GAMMA=   2.2053
  2.2053

[...]

 eigenvalue-minimisations  :  7184
 total energy-change (2. order) : 0.2080787E-07  (-0.4312918E-07)
 number of electron      63.9999997 magnetization
 augmentation part        1.3584322 magnetization

[...]

 Broyden mixing:
  rms(total) = 0.32265E-04    rms(broyden)= 0.32265E-04
  rms(prec ) = 0.59153E-04
  weight for this iteration     100.00

 eigenvalues of (default mixing * dielectric matrix)
  average eigenvalue GAMMA=   1.8016
  2.9806  2.5987  2.4174  2.0072  0.9780  0.9780  1.2264  1.2264

[...]

----------------------------------------- Iteration    1(  14)  ---------------------------------------

[...]

 eigenvalue-minimisations  :  4888
 total energy-change (2. order) :-0.3312834E-08  (-0.8958605E-09)
 number of electron      63.9999997 magnetization
 augmentation part        1.3584260 magnetization

 Free energy of the ion-electron system (eV)
  alpha Z        PSCENC =       205.90016160
  Ewald energy   TEWEN  =     -2683.45239080
  -Hartree energ DENC   =      -224.01592123
  -exchange      EXHF   =         0.00000000
  -V(xc)+E(xc)   XCENC  =       229.26660456
  PAW double counting   =       943.64634563     -963.48733278
  entropy T*S    EENTRO =         0.00000000
  eigenvalues    EBANDS =        -6.59024266
  atomic energy  EATOM  =      2354.47077523
  free energy    TOTEN  =      -144.26200045 eV

  energy without entropy =     -144.26200045  energy(sigma->0) =     -144.26200045

 average (electrostatic) potential at core
  the test charge radii are     0.6991
  (the norm of the test charge is              1.0000)
       1 -46.9249       2 -46.9248       3 -46.9306       4 -46.9190       5 -46.9306
       6 -46.9190       7 -46.9247       8 -46.9248       9 -46.9321      10 -46.9174
      11 -46.9248      12 -46.9248      13 -46.9248      14 -46.9248      15 -46.9272
      16 -46.9223

 E-fermi :   8.2901     XC(G=0): -12.6799     alpha+bet :-15.8553

 k-point     1 :       0.0000    0.0000    0.0000
  band No.  band energies     occupation
      1     -11.8286      2.00000
      2      -6.6688      2.00000
      3      -6.6573      2.00000
      4      -6.6572      2.00000
      5      -6.6462      2.00000
      6      -4.0016      2.00000
      7      -3.9902      2.00000
      8      -3.9900      2.00000
      9      -3.9805      2.00000
     10      -3.8180      2.00000
     11      -3.8042      2.00000
     12      -3.8004      2.00000
     13      -3.8003      2.00000
     14      -3.7963      2.00000
     15      -3.7802      2.00000
     16       2.5537      2.00000
     17       2.5635      2.00000
     18       2.5642      2.00000
     19       2.5643      2.00000
     20       2.5650      2.00000
     21       2.5746      2.00000
     22       5.6679      2.00000
     23       5.6891      2.00000
     24       5.6956      2.00000
     25       5.6961      2.00000
     26       5.6986      2.00000
     27       5.6991      2.00000
     28       5.7058      2.00000
     29       5.7267      2.00000
     30       8.2075      2.00000
     31       8.2246      2.00000
     32       8.2421      2.00000
     33      12.7285      0.00000
     34      12.7399      0.00000
     35      12.7489      0.00000
     36      12.7490      0.00000
     37      12.7576      0.00000
     38      12.7679      0.00000
     39      13.4973      0.00000
     40      13.5128      0.00000
     41      13.5285      0.00000

[...]

 k-point    72 :       0.5000    0.5000    0.5000
  band No.  band energies     occupation
      1     -10.2521      2.00000
      2     -10.2369      2.00000
      3      -6.3330      2.00000
      4      -6.3161      2.00000
      5      -6.3149      2.00000
      6      -6.3121      2.00000
      7      -6.3114      2.00000
      8      -6.2973      2.00000
      9      -1.8182      2.00000
     10      -1.8139      2.00000
     11      -1.8134      2.00000
     12      -1.8084      2.00000
     13      -1.8065      2.00000
     14      -1.7885      2.00000
     15       2.0065      2.00000
     16       2.0416      2.00000
     17       2.0464      2.00000
     18       2.0515      2.00000
     19       2.0523      2.00000
     20       2.0544      2.00000
     21       2.1192      2.00000
     22       2.1300      2.00000
     23       3.8402      2.00000
     24       3.8413      2.00000
     25       3.8453      2.00000
     26       3.8513      2.00000
     27       3.8586      2.00000
     28       3.8738      2.00000
     29       6.6536      2.00000
     30       6.6542      2.00000
     31       6.6598      2.00000
     32       6.6859      2.00000
     33      13.9414      0.00000
     34      13.9451      0.00000
     35      13.9455      0.00000
     36      13.9473      0.00000
     37      13.9654      0.00000
     38      13.9691      0.00000
     39      15.3543      0.00000
     40      15.3671      0.00000
     41      15.4927      0.00000

 soft charge-density along one line, spin component           1
         0         1         2         3         4         5         6         7         8         9
 total charge-density along one line

------------------------ aborting loop because EDIFF is reached ----------------------------------------

         DFTD3 V3.0 Rev 1
 IVDW         = 12
 DF pbe
 parameters
 VDW_S6       =    1.0000
 VDW_S8       =    0.7875
 VDW_A1       =    0.4289
 VDW_A2       =    4.4407
 k1-k3        =   16.0000    1.3333   -4.0000
 VDW_RADIUS   =   50.2022 A
 VDW_CNRADIUS =   21.1671 A
 Edisp (eV)   -2.74457

 E6    (eV) :    -1.9525
 E8    (eV) :    -0.7921
 % E8        : 28.86

  FORCE on cell =-STRESS in cart. coord.  units (eV):
  Direction    XX          YY          ZZ          XY          YZ          ZX
  Alpha Z   205.90016   205.90016   205.90016
  Ewald    -894.48684  -894.48378  -894.49041     1.38200     0.00930     0.97722
  Hartree    74.67040    74.67302    74.67205     0.23078     0.00137     0.16318
  E(xc)    -233.58558  -233.58560  -233.58562     0.00492     0.00003     0.00348
  Local    -106.81268  -106.82517  -106.81634    -1.42875    -0.01243    -1.01028
  n-local   -47.51714   -47.31722   -47.71835     0.11555    -0.07236    -0.13394
  augment    -4.93144    -4.93138    -4.93140    -0.00066     0.00003    -0.00046
  Kinetic   982.94260   981.48569   984.41113    -1.06215     0.52396     1.04261
  Fock        0.00000     0.00000     0.00000     0.00000     0.00000     0.00000
  vdW        -2.70208    -2.70208    -2.70208    -0.00017     0.00000    -0.00012
  Total     -26.52261   -26.52253   -26.52469    -0.01460     0.00306    -0.01032
  in kB    -419.46112  -419.45982  -419.49403    -0.23089     0.04838    -0.16326

 VOLUME and BASIS-vectors are now :
  energy-cutoff  :      800.00
  volume of cell :      101.31
      direct lattice vectors                 reciprocal lattice vectors
     5.232590199  0.000000000  0.000000000     0.191109940 -0.110337375 -0.078020306
     2.616295099  4.531556040  0.000000000     0.000000000  0.220674751 -0.078020306
     2.616295099  1.510518680  4.272392006     0.000000000  0.000000000  0.234060919

  length of vectors
     5.232590199  5.232590199  5.232590198     0.234060919  0.234060919  0.234060919

 FORCES acting on ions
    electron-ion (+dipol)            ewald-force                    non-local-force                 convergence-correction
   0.125E+01 0.131E-01 0.924E-02   -.143E+01 -.154E-01 -.109E-01   -.182E+00 -.516E-03 -.365E-03   0.455E-04 0.354E-05 0.250E-05
   -.493E+00 0.197E-03 0.139E-03   0.523E+00 -.865E-06 -.243E-05   0.253E-01 -.179E-03 -.127E-03   -.503E-04 0.574E-06 0.406E-06
   -.585E-01 -.251E+00 -.260E-01   0.460E-01 0.275E+00 0.135E-01   0.134E-01 0.690E-02 0.221E-02   0.162E-05 -.344E-04 0.161E-04
   -.585E-01 0.251E+00 0.260E-01   0.460E-01 -.275E+00 -.135E-01   0.134E-01 -.686E-02 -.227E-02   0.461E-05 0.308E-04 -.160E-04
   -.585E-01 -.108E+00 -.228E+00   0.460E-01 0.105E+00 0.255E+00   0.134E-01 0.438E-02 0.577E-02   0.162E-05 0.367E-05 -.378E-04
   -.585E-01 0.108E+00 0.228E+00   0.460E-01 -.105E+00 -.255E+00   0.134E-01 -.442E-02 -.571E-02   0.461E-05 -.477E-05 0.344E-04
   0.129E+00 -.818E-04 -.578E-04   -.135E+00 -.865E-06 -.243E-05   0.577E-02 0.398E-04 0.281E-04   -.336E-05 0.129E-05 0.911E-06
   -.892E-01 -.338E-05 -.235E-05   0.953E-01 -.865E-06 -.243E-05   -.234E-02 0.181E-04 0.128E-04   0.115E-05 -.180E-05 -.127E-05
   -.570E+00 -.614E+00 -.434E+00   0.656E+00 0.652E+00 0.461E+00   0.393E-02 -.251E-01 -.177E-01   -.249E-05 -.119E-04 -.840E-05
   -.569E+00 0.604E+00 0.427E+00   0.654E+00 -.641E+00 -.453E+00   0.136E-02 0.257E-01 0.182E-01   0.714E-05 0.774E-05 0.547E-05
   0.485E+00 -.503E-02 0.189E-02   -.465E+00 0.505E-02 -.160E-02   0.466E-01 0.182E-03 -.115E-03   0.213E-04 0.411E-05 -.288E-05
   -.182E+00 0.124E-02 -.205E-03   0.172E+00 -.129E-02 0.244E-03   0.391E-02 -.488E-05 -.109E-04   -.266E-04 -.597E-06 0.186E-06
   0.485E+00 0.996E-04 -.536E-02   -.465E+00 0.171E-03 0.530E-02   0.466E-01 -.480E-04 0.210E-03   0.213E-04 -.134E-05 0.484E-05
   -.182E+00 0.214E-03 0.124E-02   0.172E+00 -.201E-03 -.129E-02   0.391E-02 -.119E-04 -.970E-06   -.266E-04 -.240E-07 -.624E-06
   -.171E-01 -.949E-01 -.671E-01   0.182E-01 0.886E-01 0.626E-01   -.312E-02 0.407E-02 0.288E-02   0.107E-05 -.157E-04 -.111E-04
   -.177E-01 0.950E-01 0.672E-01   0.189E-01 -.886E-01 -.627E-01   -.317E-02 -.408E-02 -.289E-02   0.162E-05 0.186E-04 0.131E-04
   0.653E-05 -.127E-03 -.418E-04   -.208E-14 -.255E-13 -.136E-13   0.100E-04 0.105E-03 0.744E-04   0.214E-05 -.138E-06 -.974E-07

 POSITION                                       TOTAL-FORCE (eV/Angst)
      0.01000      0.00000      0.00000        -0.358030     -0.002866     -0.002026
      2.61630      0.00000      0.00000         0.055500      0.000016      0.000012
      1.30815      2.26578      0.00000         0.000835      0.031507     -0.010264
      3.92444      2.26578      0.00000         0.000877     -0.031586      0.010171
      1.30815      0.75526      2.13620         0.000835      0.000825      0.033126
      3.92444      0.75526      2.13620         0.000877     -0.000939     -0.033170
      2.61630      3.02104      2.13620        -0.000674     -0.000042     -0.000030
      5.23259      3.02104      2.13620         0.003773      0.000011      0.000008
      1.30815      0.75526      0.53405         0.090519      0.013360      0.009447
      3.92444      0.75526      0.53405         0.086161     -0.010664     -0.007541
      2.61630      3.02104      0.53405         0.067581      0.000212      0.000163
      5.23259      3.02104      0.53405        -0.005924     -0.000050      0.000022
      2.61630      1.51052      2.67024         0.067581      0.000224      0.000145
      5.23259      1.51052      2.67024        -0.005924      0.000005     -0.000054
      3.92444      3.77630      2.67024        -0.002003     -0.002278     -0.001611
      6.54074      3.77630      2.67024        -0.001983      0.002265      0.001601
    total drift:                                0.000019     -0.000022      0.000033

  FREE ENERGIE OF THE ION-ELECTRON SYSTEM (eV)
  free  energy   TOTEN  =      -147.00657029 eV

  energy  without entropy=     -147.00657029  energy(sigma->0) =     -147.00657029

 BZINTS: Fermi energy:  8.290139; 64.000000 electrons
         Band energy:  -6.590243;  BLOECHL correction:  0.000000