 vasp.5.3.5 31Mar14 (build Nov 02 2014 15:17:37) complex

 executed on        ion-Intel-MKL date 2016.11.14  14:42:09

 INCAR:
 POTCAR:   PAW_PBE C 08Apr2002
 POTCAR:   PAW_PBE C 08Apr2002
   VRHFIN =C: s2p2

   TITEL  = PAW_PBE C 08Apr2002
   POMASS =   12.011; ZVAL   =    4.000    mass and valenz
   ENMAX  =  400.000; ENMIN  =  300.000 eV
   QCUT   =   -5.516; QGAM   =   11.032    optimization parameters

   Description
     l     E      TYP  RCUT    TYP  RCUT
     0   .000     23  1.200
     0   .000     23  1.200
     1   .000     23  1.500
     1  2.500     23  1.500
     2   .000      7  1.500

 PAW_PBE C 08Apr2002                    :

 POSCAR: CIF file
  positions in direct lattice
  velocities in cartesian coordinates
 exchange correlation table for  LEXCH =        8
   RHO(1)=    0.500       N(1)  =     2000
   RHO(2)=  100.500       N(2)  =     4000

 ion  position               nearest neighbor table
   1  0.999  0.001  0.083-   2 1.42   2 1.42   2 1.42
   2  0.333  0.667  0.083-   1 1.42   1 1.42   1 1.42

  LATTYP: Found a base centered orthorhombic cell.
 ALAT       =     2.4647749720
 B/A-ratio  =     1.7336082085
 C/A-ratio  =    16.2286620300

  Lattice vectors:

 A1 = (   2.4664373398,   0.0000000000,   0.0000000000)
 A2 = (  -1.2348804775,   2.1350370857,   0.0000000000)
 A3 = (   0.0000000000,   0.0000000000,  40.0000000000)

Analysis of symmetry for initial positions (statically):
 Subroutine PRICEL returns:
 Original cell was already a primitive cell.

 Routine SETGRP: Setting up the symmetry group for a
 base centered orthorhombic supercell.

 Subroutine GETGRP returns: Found  8 space group operations
 (whereof  2 operations were pure point group operations)
 out of a pool of  8 trial point group operations.

The static configuration has the point symmetry C_1h.
 The point group associated with its full space group is D_2h.

Analysis of symmetry for dynamics (positions and initial velocities):
 Subroutine PRICEL returns:
 Original cell was already a primitive cell.

 Routine SETGRP: Setting up the symmetry group for a
 base centered orthorhombic supercell.

 Subroutine GETGRP returns: Found  8 space group operations
 (whereof  2 operations were pure point group operations)
 out of a pool of  8 trial point group operations.

The dynamic configuration has the point symmetry C_1h.
 The point group associated with its full space group is D_2h.

 KPOINTS: B4C B11C-CBC

Automatic generation of k-mesh.
Space group operators:
 irot       det(A)        alpha          n_x          n_y          n_z        tau_x        tau_y        tau_z
    1     1.000000     0.000000     1.000000     0.000000     0.000000     0.000000     0.000000     0.000000
    2    -1.000000   180.000000    -0.499663    -0.866220     0.000000     0.000000     0.000000     0.000000
    3    -1.000000     0.000000     1.000000     0.000000     0.000000     0.331932     0.668069     0.165794
    4     1.000000   180.000000     0.000000     0.000000     1.000000     0.331932     0.668069     0.000000
    5    -1.000000   180.000000     0.000000     0.000000     1.000000     0.000000     0.000000     0.165794
    6     1.000000   180.000000     0.866220    -0.499663     0.000000     0.000000     0.000000     0.165794
    7    -1.000000   180.000000     0.866220    -0.499663     0.000000     0.331932     0.668069     0.000000
    8     1.000000   180.000000    -0.499663    -0.866220     0.000000     0.331932     0.668069     0.165794

 Subroutine IBZKPT returns following result:

 Found    215 irreducible k-points:

 Following reciprocal coordinates:
            Coordinates               Weight
  0.000000  0.000000  0.000000      1.000000
  0.083333  0.000000  0.000000      4.000000
  0.166667  0.000000  0.000000      4.000000
  0.250000  0.000000  0.000000      4.000000
  0.333333  0.000000  0.000000      4.000000
  0.416667  0.000000  0.000000      4.000000
  0.500000  0.000000  0.000000      2.000000
  0.083333  0.083333  0.000000      2.000000
  0.166667  0.083333  0.000000      4.000000
  0.250000  0.083333  0.000000      4.000000
  0.333333  0.083333  0.000000      4.000000
  0.416667  0.083333  0.000000      4.000000
  0.500000  0.083333  0.000000      4.000000
 -0.416667  0.083333  0.000000      4.000000
 -0.333333  0.083333  0.000000      4.000000
 -0.250000  0.083333  0.000000      4.000000
 -0.166667  0.083333  0.000000      4.000000
 -0.083333  0.083333  0.000000      2.000000
  0.166667  0.166667  0.000000      2.000000
  0.250000  0.166667  0.000000      4.000000
  0.333333  0.166667  0.000000      4.000000
  0.416667  0.166667  0.000000      4.000000
  0.500000  0.166667  0.000000      4.000000
 -0.416667  0.166667  0.000000      4.000000
 -0.333333  0.166667  0.000000      4.000000
 -0.250000  0.166667  0.000000      4.000000
 -0.166667  0.166667  0.000000      2.000000
  0.250000  0.250000  0.000000      2.000000
  0.333333  0.250000  0.000000      4.000000
  0.416667  0.250000  0.000000      4.000000
  0.500000  0.250000  0.000000      4.000000
 -0.416667  0.250000  0.000000      4.000000
 -0.333333  0.250000  0.000000      4.000000
 -0.250000  0.250000  0.000000      2.000000
  0.333333  0.333333  0.000000      2.000000
  0.416667  0.333333  0.000000      4.000000
  0.500000  0.333333  0.000000      4.000000
 -0.416667  0.333333  0.000000      4.000000
 -0.333333  0.333333  0.000000      2.000000
  0.416667  0.416667  0.000000      2.000000
  0.500000  0.416667  0.000000      4.000000
 -0.416667  0.416667  0.000000      2.000000
  0.500000  0.500000  0.000000      1.000000
  0.000000  0.000000  0.125000      2.000000
  0.083333  0.000000  0.125000      8.000000
  0.166667  0.000000  0.125000      8.000000
  0.250000  0.000000  0.125000      8.000000
  0.333333  0.000000  0.125000      8.000000
  0.416667  0.000000  0.125000      8.000000
  0.500000  0.000000  0.125000      4.000000
  0.083333  0.083333  0.125000      4.000000
  0.166667  0.083333  0.125000      8.000000
  0.250000  0.083333  0.125000      8.000000
  0.333333  0.083333  0.125000      8.000000
  0.416667  0.083333  0.125000      8.000000
  0.500000  0.083333  0.125000      8.000000
 -0.416667  0.083333  0.125000      8.000000
 -0.333333  0.083333  0.125000      8.000000
 -0.250000  0.083333  0.125000      8.000000
 -0.166667  0.083333  0.125000      8.000000
[...]
  0.333333  0.250000  0.500000      4.000000
  0.416667  0.250000  0.500000      4.000000
  0.500000  0.250000  0.500000      4.000000
 -0.416667  0.250000  0.500000      4.000000
 -0.333333  0.250000  0.500000      4.000000
 -0.250000  0.250000  0.500000      2.000000
  0.333333  0.333333  0.500000      2.000000
  0.416667  0.333333  0.500000      4.000000
  0.500000  0.333333  0.500000      4.000000
 -0.416667  0.333333  0.500000      4.000000
 -0.333333  0.333333  0.500000      2.000000
  0.416667  0.416667  0.500000      2.000000
  0.500000  0.416667  0.500000      4.000000
 -0.416667  0.416667  0.500000      2.000000
  0.500000  0.500000  0.500000      1.000000

 Following cartesian coordinates:
            Coordinates               Weight
  0.000000  0.000000  0.000000      1.000000
  0.033787  0.019542  0.000000      4.000000
  0.067574  0.039084  0.000000      4.000000
  0.101361  0.058626  0.000000      4.000000
  0.135148  0.078168  0.000000      4.000000
  0.168935  0.097710  0.000000      4.000000
  0.202722  0.117252  0.000000      2.000000
  0.033787  0.058573  0.000000      2.000000
  0.067574  0.078115  0.000000      4.000000
  0.101361  0.097657  0.000000      4.000000
  0.135148  0.117199  0.000000      4.000000
  0.168935  0.136741  0.000000      4.000000
  0.202722  0.156283  0.000000      4.000000
 -0.168935 -0.058678  0.000000      4.000000
 -0.135148 -0.039137  0.000000      4.000000
 -0.101361 -0.019595  0.000000      4.000000
 -0.067574 -0.000053  0.000000      4.000000
 -0.033787  0.019489  0.000000      2.000000
  0.067574  0.117147  0.000000      2.000000
  0.101361  0.136689  0.000000      4.000000
  0.135148  0.156231  0.000000      4.000000
  0.168935  0.175772  0.000000      4.000000
  0.202722  0.195314  0.000000      4.000000
 -0.168935 -0.019647  0.000000      4.000000
 -0.135148 -0.000105  0.000000      4.000000
 -0.101361  0.019437  0.000000      4.000000
 -0.067574  0.038979  0.000000      2.000000
  0.101361  0.175720  0.000000      2.000000
  0.135148  0.195262  0.000000      4.000000
  0.168935  0.214804  0.000000      4.000000
  0.202722  0.234346  0.000000      4.000000
 -0.168935  0.019384  0.000000      4.000000
 -0.135148  0.038926  0.000000      4.000000
 -0.101361  0.058468  0.000000      2.000000
  0.135148  0.234293  0.000000      2.000000
  0.168935  0.253835  0.000000      4.000000
  0.202722  0.273377  0.000000      4.000000
 -0.168935  0.058416  0.000000      4.000000
 -0.135148  0.077957  0.000000      2.000000
  0.168935  0.292866  0.000000      2.000000
  0.202722  0.312408  0.000000      4.000000
 -0.168935  0.097447  0.000000      2.000000
  0.202722  0.351440  0.000000      1.000000
  0.000000  0.000000  0.003125      2.000000
  0.033787  0.019542  0.003125      8.000000
  0.067574  0.039084  0.003125      8.000000
  0.101361  0.058626  0.003125      8.000000
  0.135148  0.078168  0.003125      8.000000
  0.168935  0.097710  0.003125      8.000000
  0.202722  0.117252  0.003125      4.000000
  0.033787  0.058573  0.003125      4.000000
  0.067574  0.078115  0.003125      8.000000
  0.101361  0.097657  0.003125      8.000000
  0.135148  0.117199  0.003125      8.000000
  0.168935  0.136741  0.003125      8.000000
  0.202722  0.156283  0.003125      8.000000
 -0.168935 -0.058678  0.003125      8.000000
 -0.135148 -0.039137  0.003125      8.000000
 -0.101361 -0.019595  0.003125      8.000000
 -0.067574 -0.000053  0.003125      8.000000
[...]
  0.135148  0.195262  0.012500      4.000000
  0.168935  0.214804  0.012500      4.000000
  0.202722  0.234346  0.012500      4.000000
 -0.168935  0.019384  0.012500      4.000000
 -0.135148  0.038926  0.012500      4.000000
 -0.101361  0.058468  0.012500      2.000000
  0.135148  0.234293  0.012500      2.000000
  0.168935  0.253835  0.012500      4.000000
  0.202722  0.273377  0.012500      4.000000
 -0.168935  0.058416  0.012500      4.000000
 -0.135148  0.077957  0.012500      2.000000
  0.168935  0.292866  0.012500      2.000000
  0.202722  0.312408  0.012500      4.000000
 -0.168935  0.097447  0.012500      2.000000
  0.202722  0.351440  0.012500      1.000000

 TETIRR: Found   1728 inequivalent tetrahedra from     6912

 I would recommend the setting:
   dimension x,y,z NGX =    23 NGY =   23 NGZ =  369
 SYSTEM =  graphite
 POSCAR =  CIF file

 Startparameter for this run:
   NWRITE =      2    write-flag & timer
   PREC   = accura    normal or accurate (medium, high low for compatibility)
   ISTART =      0    job   : 0-new  1-cont  2-samecut
   ICHARG =      2    charge: 1-file 2-atom 10-const
   ISPIN  =      1    spin polarized calculation?
   LNONCOLLINEAR =      F non collinear calculations
   LSORBIT =      F    spin-orbit coupling
   INIWAV =      1    electr: 0-lowe 1-rand  2-diag
   LASPH  =      F    aspherical Exc in radial PAW
[...]
 k-point 25 :  -0.3333 0.1667 0.0000  plane waves:   10848
 k-point 26 :  -0.2500 0.1667 0.0000  plane waves:   10863
 k-point 27 :  -0.1667 0.1667 0.0000  plane waves:   10860
 k-point 28 :   0.2500 0.2500 0.0000  plane waves:   10780
 k-point 29 :   0.3333 0.2500 0.0000  plane waves:   10763
 k-point 30 :   0.4167 0.2500 0.0000  plane waves:   10758
 k-point 31 :   0.5000 0.2500 0.0000  plane waves:   10782
 k-point 32 :  -0.4167 0.2500 0.0000  plane waves:   10785
 k-point 33 :  -0.3333 0.2500 0.0000  plane waves:   10832
 k-point 34 :  -0.2500 0.2500 0.0000  plane waves:   10876
 k-point 35 :   0.3333 0.3333 0.0000  plane waves:   10708
 k-point 36 :   0.4167 0.3333 0.0000  plane waves:   10767
 k-point 37 :   0.5000 0.3333 0.0000  plane waves:   10780
 k-point 38 :  -0.4167 0.3333 0.0000  plane waves:   10817
 k-point 39 :  -0.3333 0.3333 0.0000  plane waves:   10844
 k-point 40 :   0.4167 0.4167 0.0000  plane waves:   10830
 k-point 41 :   0.5000 0.4167 0.0000  plane waves:   10854
 k-point 42 :  -0.4167 0.4167 0.0000  plane waves:   10852
 k-point 43 :   0.5000 0.5000 0.0000  plane waves:   10808
 k-point 44 :   0.0000 0.0000 0.1250  plane waves:   10829
 k-point 45 :   0.0833 0.0000 0.1250  plane waves:   10846
 k-point 46 :   0.1667 0.0000 0.1250  plane waves:   10867
 k-point 47 :   0.2500 0.0000 0.1250  plane waves:   10867
 k-point 48 :   0.3333 0.0000 0.1250  plane waves:   10836
 k-point 49 :   0.4167 0.0000 0.1250  plane waves:   10850
 k-point 50 :   0.5000 0.0000 0.1250  plane waves:   10814
 k-point 51 :   0.0833 0.0833 0.1250  plane waves:   10870
 k-point 52 :   0.1667 0.0833 0.1250  plane waves:   10855
 k-point 53 :   0.2500 0.0833 0.1250  plane waves:   10830
 k-point 54 :   0.3333 0.0833 0.1250  plane waves:   10803
 k-point 55 :   0.4167 0.0833 0.1250  plane waves:   10848
 k-point 56 :   0.5000 0.0833 0.1250  plane waves:   10851
 k-point 57 :  -0.4167 0.0833 0.1250  plane waves:   10810
 k-point 58 :  -0.3333 0.0833 0.1250  plane waves:   10829
 k-point 59 :  -0.2500 0.0833 0.1250  plane waves:   10857
 k-point 60 :  -0.1667 0.0833 0.1250  plane waves:   10867
[...]
 k-point 85 :  -0.4167 0.4167 0.1250  plane waves:   10850
 k-point 86 :   0.5000 0.5000 0.1250  plane waves:   10816
 k-point 87 :   0.0000 0.0000 0.2500  plane waves:   10860
 k-point 88 :   0.0833 0.0000 0.2500  plane waves:   10845
 k-point 89 :   0.1667 0.0000 0.2500  plane waves:   10864
 k-point 90 :   0.2500 0.0000 0.2500  plane waves:   10855
 k-point 91 :   0.3333 0.0000 0.2500  plane waves:   10835
 k-point 92 :   0.4167 0.0000 0.2500  plane waves:   10845
 k-point 93 :   0.5000 0.0000 0.2500  plane waves:   10834
 k-point 94 :   0.0833 0.0833 0.2500  plane waves:   10879
 k-point 95 :   0.1667 0.0833 0.2500  plane waves:   10858
 k-point 96 :   0.2500 0.0833 0.2500  plane waves:   10829
 k-point 97 :   0.3333 0.0833 0.2500  plane waves:   10810
 k-point 98 :   0.4167 0.0833 0.2500  plane waves:   10848
 k-point 99 :   0.5000 0.0833 0.2500  plane waves:   10849
 k-point ** :  -0.4167 0.0833 0.2500  plane waves:   10808
 k-point ** :  -0.3333 0.0833 0.2500  plane waves:   10830
 k-point ** :  -0.2500 0.0833 0.2500  plane waves:   10860
 k-point ** :  -0.1667 0.0833 0.2500  plane waves:   10878
 k-point ** :  -0.0833 0.0833 0.2500  plane waves:   10844
 k-point ** :   0.1667 0.1667 0.2500  plane waves:   10831
 k-point ** :   0.2500 0.1667 0.2500  plane waves:   10781
 k-point ** :   0.3333 0.1667 0.2500  plane waves:   10793
 k-point ** :   0.4167 0.1667 0.2500  plane waves:   10839
 k-point ** :   0.5000 0.1667 0.2500  plane waves:   10793
 k-point ** :  -0.4167 0.1667 0.2500  plane waves:   10783
 k-point ** :  -0.3333 0.1667 0.2500  plane waves:   10838
 k-point ** :  -0.2500 0.1667 0.2500  plane waves:   10859
 k-point ** :  -0.1667 0.1667 0.2500  plane waves:   10868
 k-point ** :   0.2500 0.2500 0.2500  plane waves:   10779
 k-point ** :   0.3333 0.2500 0.2500  plane waves:   10761
 k-point ** :   0.4167 0.2500 0.2500  plane waves:   10757
 k-point ** :   0.5000 0.2500 0.2500  plane waves:   10782
 k-point ** :  -0.4167 0.2500 0.2500  plane waves:   10787
 k-point ** :  -0.3333 0.2500 0.2500  plane waves:   10830
 k-point ** :  -0.2500 0.2500 0.2500  plane waves:   10858
 k-point ** :   0.3333 0.3333 0.2500  plane waves:   10707
 k-point ** :   0.4167 0.3333 0.2500  plane waves:   10762
 k-point ** :   0.5000 0.3333 0.2500  plane waves:   10794
 k-point ** :  -0.4167 0.3333 0.2500  plane waves:   10810
 k-point ** :  -0.3333 0.3333 0.2500  plane waves:   10834
 k-point ** :   0.4167 0.4167 0.2500  plane waves:   10837
 k-point ** :   0.5000 0.4167 0.2500  plane waves:   10848
 k-point ** :  -0.4167 0.4167 0.2500  plane waves:   10847
 k-point ** :   0.5000 0.5000 0.2500  plane waves:   10830
 k-point ** :   0.0000 0.0000 0.3750  plane waves:   10846
 k-point ** :   0.0833 0.0000 0.3750  plane waves:   10844
 k-point ** :   0.1667 0.0000 0.3750  plane waves:   10860
 k-point ** :   0.2500 0.0000 0.3750  plane waves:   10857
 k-point ** :   0.3333 0.0000 0.3750  plane waves:   10836
 k-point ** :   0.4167 0.0000 0.3750  plane waves:   10846
 k-point ** :   0.5000 0.0000 0.3750  plane waves:   10834
 k-point ** :   0.0833 0.0833 0.3750  plane waves:   10868
 k-point ** :   0.1667 0.0833 0.3750  plane waves:   10860
 k-point ** :   0.2500 0.0833 0.3750  plane waves:   10839
 k-point ** :   0.3333 0.0833 0.3750  plane waves:   10801
 k-point ** :   0.4167 0.0833 0.3750  plane waves:   10845
 k-point ** :   0.5000 0.0833 0.3750  plane waves:   10845
 k-point ** :  -0.4167 0.0833 0.3750  plane waves:   10800
 k-point ** :  -0.3333 0.0833 0.3750  plane waves:   10834
 k-point ** :  -0.2500 0.0833 0.3750  plane waves:   10861
 k-point ** :  -0.1667 0.0833 0.3750  plane waves:   10871
 k-point ** :  -0.0833 0.0833 0.3750  plane waves:   10847
 k-point ** :   0.1667 0.1667 0.3750  plane waves:   10835
 k-point ** :   0.2500 0.1667 0.3750  plane waves:   10777
 k-point ** :   0.3333 0.1667 0.3750  plane waves:   10792
 k-point ** :   0.4167 0.1667 0.3750  plane waves:   10842
 k-point ** :   0.5000 0.1667 0.3750  plane waves:   10792
 k-point ** :  -0.4167 0.1667 0.3750  plane waves:   10780
 k-point ** :  -0.3333 0.1667 0.3750  plane waves:   10841
 k-point ** :  -0.2500 0.1667 0.3750  plane waves:   10859
 k-point ** :  -0.1667 0.1667 0.3750  plane waves:   10863
 k-point ** :   0.2500 0.2500 0.3750  plane waves:   10782
 k-point ** :   0.3333 0.2500 0.3750  plane waves:   10769
 k-point ** :   0.4167 0.2500 0.3750  plane waves:   10767
[...]
 k-point ** :   0.3333 0.2500 0.5000  plane waves:   10768
 k-point ** :   0.4167 0.2500 0.5000  plane waves:   10766
 k-point ** :   0.5000 0.2500 0.5000  plane waves:   10780
 k-point ** :  -0.4167 0.2500 0.5000  plane waves:   10782
 k-point ** :  -0.3333 0.2500 0.5000  plane waves:   10842
 k-point ** :  -0.2500 0.2500 0.5000  plane waves:   10856
 k-point ** :   0.3333 0.3333 0.5000  plane waves:   10722
 k-point ** :   0.4167 0.3333 0.5000  plane waves:   10770
 k-point ** :   0.5000 0.3333 0.5000  plane waves:   10788
 k-point ** :  -0.4167 0.3333 0.5000  plane waves:   10808
 k-point ** :  -0.3333 0.3333 0.5000  plane waves:   10832
 k-point ** :   0.4167 0.4167 0.5000  plane waves:   10838
 k-point ** :   0.5000 0.4167 0.5000  plane waves:   10842
 k-point ** :  -0.4167 0.4167 0.5000  plane waves:   10848
 k-point ** :   0.5000 0.5000 0.5000  plane waves:   10836

 maximum and minimum number of plane-waves per node :     10879    10705

 maximum number of plane-waves:     10879
 maximum index in each direction:
   IXMAX=    6   IYMAX=    5   IZMAX=   92
   IXMIN=   -6   IYMIN=   -6   IZMIN=  -92

 WARNING: aliasing errors must be expected set NGX to  26 to avoid them
 NGY is ok and might be reduce to  24
 NGZ is ok and might be reduce to 370
 aliasing errors are usually negligible using standard VASP settings
 and one can safely disregard these warnings

 serial   3D FFT for wavefunctions
 parallel 3D FFT for charge:
    minimum data exchange during FFTs selected (reduces bandwidth)

 Broyden mixing: mesh for mixing (old mesh)
   NGX = 11   NGY = 11   NGZ =185
  (NGX  = 48   NGY  = 48   NGZ  =756)
  gives a total of  22385 points

 initial charge density was supplied:
 charge density of overlapping atoms calculated
 number of electron       8.0000000 magnetization
 keeping initial charge density in first step

 Maximum index for augmentation-charges        11858 (set IRDMAX)

 First call to EWALD:  gamma=   0.298
 Maximum number of real-space cells 7x 7x 1
 Maximum number of reciprocal cells 1x 1x16

 FEWALD executed in parallel

----------------------------------------- Iteration    1(   1)  ---------------------------------------

 BZINTS: Fermi energy:  4.819779;  8.000000 electrons
         Band energy: -29.182055;  BLOECHL correction: -0.469802

 eigenvalue-minimisations  :  3480
 total energy-change (2. order) : 0.8862862E+02  (-0.3551135E+03)
 number of electron       8.0000000 magnetization
 augmentation part        8.0000000 magnetization

 Free energy of the ion-electron system (eV)
  alpha Z        PSCENC =         1.54730662
  Ewald energy   TEWEN  =      3127.61013065
  -Hartree energ DENC   =     -3330.90995218
  -exchange      EXHF   =         0.00000000
  -V(xc)+E(xc)   XCENC  =        27.55530740
  PAW double counting   =        75.66288619      -77.96384553
  entropy T*S    EENTRO =         0.00000000
  eigenvalues    EBANDS =       -29.18205525
  atomic energy  EATOM  =       294.30884690
  free energy    TOTEN  =        88.62862481 eV

  energy without entropy =       88.62862481  energy(sigma->0) =       88.62862481

 BZINTS: Fermi energy:  4.018163;  8.000000 electrons
 BZINTS: Fermi energy: -4.501770;  8.000000 electrons
         Band energy:-128.006092;  BLOECHL correction: -0.025227

 eigenvalue-minimisations  :  5648
 total energy-change (2. order) :-0.9882404E+02  (-0.7325366E+02)
 number of electron       8.0000000 magnetization
 augmentation part        8.0000000 magnetization

[...]

  energy without entropy =      -10.19541226  energy(sigma->0) =      -10.19541226
   1(   2)  ---------------------------------------

[...]

 Broyden mixing:
  rms(total) = 0.55278E+00    rms(broyden)= 0.55277E+00
  rms(prec ) = 0.56561E+00
  weight for this iteration     100.00

[...]

 eigenvalues of (default mixing * dielectric matrix)
  average eigenvalue GAMMA=   2.0415
  2.0415

[...]

 eigenvalue-minimisations  :  5168
 total energy-change (2. order) : 0.1217035E-02  (-0.1668516E-03)
 number of electron       7.9999999 magnetization
 augmentation part        0.1914153 magnetization

[...]

 eigenvalue-minimisations  :  3832
 total energy-change (2. order) :-0.2818272E-06  (-0.2504499E-09)
 number of electron       7.9999999 magnetization
 augmentation part        0.1912918 magnetization

[...]

 eigenvalue-minimisations  :  6056
 total energy-change (2. order) :-0.1994835E-07  ( 0.1673199E-10)
 number of electron       7.9999999 magnetization
 augmentation part        0.1912918 magnetization

[...]

 Broyden mixing:
  rms(total) = 0.18552E-06    rms(broyden)= 0.18552E-06
  rms(prec ) = 0.19774E-06
  weight for this iteration     100.00

 eigenvalues of (default mixing * dielectric matrix)
  average eigenvalue GAMMA=   3.2235
  9.7474  8.6160  6.4309  5.0779  4.2355  3.3503  2.8086  2.8086  2.5258  2.3041
  1.9776  2.0689  0.9903  0.9944  0.9944  1.0378  1.0268  1.0268

[...]

----------------------------------------- Iteration    1(  24)  ---------------------------------------

[...]

 eigenvalue-minimisations  :  5792
 total energy-change (2. order) :-0.1501803E-08  ( 0.1975931E-10)
 number of electron       7.9999999 magnetization
 augmentation part        0.1912918 magnetization

 Free energy of the ion-electron system (eV)
  alpha Z        PSCENC =         1.54730662
  Ewald energy   TEWEN  =      3127.61013065
  -Hartree energ DENC   =     -3367.02115163
  -exchange      EXHF   =         0.00000000
  -V(xc)+E(xc)   XCENC  =        28.76996933
  PAW double counting   =       138.85868851     -141.43441579
  entropy T*S    EENTRO =         0.00000000
  eigenvalues    EBANDS =      -101.09254006
  atomic energy  EATOM  =       294.30884690
  free energy    TOTEN  =       -18.45316547 eV

  energy without entropy =      -18.45316547  energy(sigma->0) =      -18.45316547

 average (electrostatic) potential at core
  the test charge radii are     0.6991
  (the norm of the test charge is              1.0000)
       1 -58.9341       2 -58.9341

 E-fermi :  -3.5009     XC(G=0):  -1.0841     alpha+bet : -0.9532

 k-point     1 :       0.0000    0.0000    0.0000
  band No.  band energies     occupation
      1     -23.0132      2.00000
      2     -11.1162      2.00000
      3      -6.5437      2.00000
      4      -6.5195      2.00000
      5      -0.2271      0.00000
      6       0.5427      0.00000
      7       0.7663      0.00000
      8       0.9170      0.00000

[...]

 k-point   215 :       0.5000    0.5000    0.5000
  band No.  band energies     occupation
      1     -17.7751      2.00000
      2     -16.7390      2.00000
      3      -9.8946      2.00000
      4      -5.8638      2.00000
      5      -1.8269      0.00000
      6       3.9036      0.00000
      7       7.6143      0.00000
      8       7.7708      0.00000

 soft charge-density along one line, spin component           1
         0         1         2         3         4         5         6         7         8         9
 total charge-density along one line

------------------------ aborting loop because EDIFF is reached ----------------------------------------

         DFTD3 V3.0 Rev 1
 IVDW         = 12
 DF pbe
 parameters
 VDW_S6       =    1.0000
 VDW_S8       =    0.7875
 VDW_A1       =    0.4289
 VDW_A2       =    4.4407
 k1-k3        =   16.0000    1.3333   -4.0000
 VDW_RADIUS   =   50.2022 A
 VDW_CNRADIUS =   21.1671 A
 Edisp (eV)   -0.17712

 E6    (eV) :    -0.1217
 E8    (eV) :    -0.0555
 % E8        : 31.31

  FORCE on cell =-STRESS in cart. coord.  units (eV):
  Direction    XX          YY          ZZ          XY          YZ          ZX
  Alpha Z     1.54731     1.54731     1.54731
  Ewald    3396.50996  3396.48125 -3665.38113    -0.02485     0.00000     0.00000
  Hartree  3355.68792  3355.71647 -3344.38323     0.02468     0.00000    -0.00000
  E(xc)     -29.17920   -29.17848   -30.34888     0.00063    -0.00000     0.00000
  Local   -6836.82376 -6836.87755  6908.19357    -0.04649    -0.00000     0.00000
  n-local    -7.17914    -6.81763    -6.39128    -0.12116    -0.00000     0.00000
  augment    -0.77287    -0.77256    -0.70836     0.00026     0.00000    -0.00001
  Kinetic   121.96002   118.28989   137.44937     0.97790     0.00000    -0.00000
  Fock        0.00000     0.00000     0.00000     0.00000     0.00000     0.00000
  vdW        -0.04317    -0.04284    -0.00002     0.00028     0.00000     0.00000
  Total       0.09613    -0.04323    -0.02264    -0.12048    -0.00000    -0.00000
  in kB       0.73123    -0.32884    -0.17224    -0.91640    -0.00000    -0.00000

 VOLUME and BASIS-vectors are now :
  energy-cutoff  :      800.00
  volume of cell :      210.64
      direct lattice vectors                 reciprocal lattice vectors
     2.466437340  0.000000000  0.000000000     0.405443100  0.234503546  0.000000000
    -1.234880477  2.135037086  0.000000000     0.000000000  0.468375939  0.000000000
     0.000000000  0.000000000 40.000000000     0.000000000  0.000000000  0.025000000

  length of vectors
     2.466437340  2.466437340 40.000000000     0.468375939  0.468375939  0.025000000

 FORCES acting on ions
    electron-ion (+dipol)            ewald-force                    non-local-force                 convergence-correction
   -.236E+00 0.136E+00 0.194E-05   0.108E+00 -.624E-01 0.000E+00   -.430E-01 0.248E-01 0.000E+00   -.113E-06 0.649E-07 -.108E-10
   0.236E+00 -.136E+00 0.193E-05   -.108E+00 0.624E-01 0.000E+00   0.430E-01 -.248E-01 0.000E+00   0.113E-06 -.649E-07 -.108E-10
   0.147E-05 -.146E-04 0.387E-05   0.380E-14 -.108E-14 0.000E+00   -.111E-15 0.000E+00 0.000E+00   -.241E-13 0.266E-12 -.216E-10

 POSITION                                       TOTAL-FORCE (eV/Angst)
      2.46402      0.00140      3.31588        -0.170927      0.098596      0.000000
     -0.00388      1.42496      3.31588         0.170927     -0.098596      0.000000
    total drift:                                0.000001     -0.000015      0.000004

  FREE ENERGIE OF THE ION-ELECTRON SYSTEM (eV)
  free  energy   TOTEN  =       -18.63028789 eV

  energy  without entropy=      -18.63028789  energy(sigma->0) =      -18.63028789

 BZINTS: Fermi energy: -3.500890;  8.000000 electrons
         Band energy:-101.092540;  BLOECHL correction:  0.000000