 vasp.5.3.5 31Mar14 (build Nov 02 2014 15:17:37) complex

 executed on        ion-Intel-MKL date 2016.10.14  06:13:28

 INCAR:
 POTCAR:   PAW_PBE C 08Apr2002
 POTCAR:   PAW_PBE C 08Apr2002
   VRHFIN =C: s2p2

   TITEL  = PAW_PBE C 08Apr2002
   POMASS =   12.011; ZVAL   =    4.000    mass and valenz
   ENMAX  =  400.000; ENMIN  =  300.000 eV
   QCUT   =   -5.516; QGAM   =   11.032    optimization parameters

   Description
     l     E      TYP  RCUT    TYP  RCUT
     0   .000     23  1.200
     0   .000     23  1.200
     1   .000     23  1.500
     1  2.500     23  1.500
     2   .000      7  1.500

 PAW_PBE C 08Apr2002                    :

 POSCAR: CIF file
  positions in direct lattice
  velocities in cartesian coordinates
 exchange correlation table for  LEXCH =        8
   RHO(1)=    0.500       N(1)  =     2000
   RHO(2)=  100.500       N(2)  =     4000

 ion  position               nearest neighbor table
   1  0.999  0.001  0.250-   3 1.42   3 1.42   3 1.42
   2  0.001  0.999  0.750-   4 1.42   4 1.42   4 1.42
   3  0.333  0.667  0.250-   1 1.42   1 1.42   1 1.42
   4  0.667  0.333  0.750-   2 1.42   2 1.42   2 1.42

  LATTYP: Found a base centered orthorhombic cell.
 ALAT       =     2.4647750986
 B/A-ratio  =     1.7336081796
 C/A-ratio  =     2.7444231105

  Lattice vectors:

 A1 = (   2.4664372490,  -0.0009596430,   0.0000000000)
 A2 = (  -1.2340496996,   2.1355174929,   0.0000000000)
 A3 = (   0.0000000000,   0.0000000000,   6.7643857427)

Analysis of symmetry for initial positions (statically):
 Subroutine PRICEL returns:
 Original cell was already a primitive cell.

 Routine SETGRP: Setting up the symmetry group for a
 base centered orthorhombic supercell.

 Subroutine GETGRP returns: Found  8 space group operations
 (whereof  4 operations were pure point group operations)
 out of a pool of  8 trial point group operations.

The static configuration has the point symmetry C_2h.
 The point group associated with its full space group is D_2h.

Analysis of symmetry for dynamics (positions and initial velocities):
 Subroutine PRICEL returns:
 Original cell was already a primitive cell.

 Routine SETGRP: Setting up the symmetry group for a
 base centered orthorhombic supercell.

 Subroutine GETGRP returns: Found  8 space group operations
 (whereof  4 operations were pure point group operations)
 out of a pool of  8 trial point group operations.

The dynamic configuration has the point symmetry C_2h.
 The point group associated with its full space group is D_2h.

 KPOINTS: B4C B11C-CBC

Automatic generation of k-mesh.
Space group operators:
 irot       det(A)        alpha          n_x          n_y          n_z        tau_x        tau_y        tau_z
    1     1.000000     0.000001     1.000000     0.000000     0.000000     0.000000     0.000000     0.000000
    2    -1.000000     0.000001     1.000000     0.000000     0.000000     0.000000     0.000000     0.000000
    3     1.000000   180.000000    -0.500000    -0.866025     0.000000     0.000000     0.000000     0.000000
    4    -1.000000   180.000000    -0.500000    -0.866025     0.000000     0.000000     0.000000     0.000000
    5     1.000000   180.000000     0.000000     0.000000     1.000000     0.000000     0.000000     0.500000
    6    -1.000000   180.000000     0.000000     0.000000     1.000000     0.000000     0.000000     0.500000
    7     1.000000   180.000000     0.866025    -0.500000     0.000000     0.000000     0.000000     0.500000
    8    -1.000000   180.000000     0.866025    -0.500000     0.000000     0.000000     0.000000     0.500000

 Subroutine IBZKPT returns following result:

 Found    215 irreducible k-points:

 Following reciprocal coordinates:
            Coordinates               Weight
  0.000000  0.000000  0.000000      1.000000
  0.083333  0.000000  0.000000      4.000000
  0.166667 -0.000000  0.000000      4.000000
  0.250000  0.000000  0.000000      4.000000
  0.333333  0.000000  0.000000      4.000000
  0.416667  0.000000  0.000000      4.000000
  0.500000  0.000000  0.000000      2.000000
  0.083333  0.083333  0.000000      2.000000
  0.166667  0.083333  0.000000      4.000000
  0.250000  0.083333  0.000000      4.000000
  0.333333  0.083333  0.000000      4.000000
  0.416667  0.083333  0.000000      4.000000
  0.500000  0.083333  0.000000      4.000000
 -0.416667  0.083333  0.000000      4.000000
 -0.333333  0.083333  0.000000      4.000000
 -0.250000  0.083333  0.000000      4.000000
 -0.166667  0.083333  0.000000      4.000000
 -0.083333  0.083333  0.000000      2.000000
  0.166667  0.166667  0.000000      2.000000
  0.250000  0.166667  0.000000      4.000000
  0.333333  0.166667  0.000000      4.000000
  0.416667  0.166667  0.000000      4.000000
  0.500000  0.166667  0.000000      4.000000
 -0.416667  0.166667  0.000000      4.000000
 -0.333333  0.166667  0.000000      4.000000
 -0.250000  0.166667  0.000000      4.000000
 -0.166667  0.166667  0.000000      2.000000
  0.250000  0.250000  0.000000      2.000000
  0.333333  0.250000  0.000000      4.000000
  0.416667  0.250000  0.000000      4.000000
  0.500000  0.250000  0.000000      4.000000
 -0.416667  0.250000  0.000000      4.000000
 -0.333333  0.250000  0.000000      4.000000
 -0.250000  0.250000  0.000000      2.000000
  0.333333  0.333333  0.000000      2.000000
  0.416667  0.333333  0.000000      4.000000
  0.500000  0.333333  0.000000      4.000000
 -0.416667  0.333333  0.000000      4.000000
 -0.333333  0.333333  0.000000      2.000000
  0.416667  0.416667  0.000000      2.000000
  0.500000  0.416667  0.000000      4.000000
 -0.416667  0.416667  0.000000      2.000000
  0.500000  0.500000  0.000000      1.000000
  0.000000  0.000000  0.125000      2.000000
  0.083333  0.000000  0.125000      8.000000
  0.166667 -0.000000  0.125000      8.000000
  0.250000  0.000000  0.125000      8.000000
  0.333333  0.000000  0.125000      8.000000
  0.416667  0.000000  0.125000      8.000000
  0.500000  0.000000  0.125000      4.000000
  0.083333  0.083333  0.125000      4.000000
  0.166667  0.083333  0.125000      8.000000
  0.250000  0.083333  0.125000      8.000000
  0.333333  0.083333  0.125000      8.000000
  0.416667  0.083333  0.125000      8.000000
  0.500000  0.083333  0.125000      8.000000
 -0.416667  0.083333  0.125000      8.000000
 -0.333333  0.083333  0.125000      8.000000
 -0.250000  0.083333  0.125000      8.000000
 -0.166667  0.083333  0.125000      8.000000
[...]
  0.333333  0.250000  0.500000      4.000000
  0.416667  0.250000  0.500000      4.000000
  0.500000  0.250000  0.500000      4.000000
 -0.416667  0.250000  0.500000      4.000000
 -0.333333  0.250000  0.500000      4.000000
 -0.250000  0.250000  0.500000      2.000000
  0.333333  0.333333  0.500000      2.000000
  0.416667  0.333333  0.500000      4.000000
  0.500000  0.333333  0.500000      4.000000
 -0.416667  0.333333  0.500000      4.000000
 -0.333333  0.333333  0.500000      2.000000
  0.416667  0.416667  0.500000      2.000000
  0.500000  0.416667  0.500000      4.000000
 -0.416667  0.416667  0.500000      2.000000
  0.500000  0.500000  0.500000      1.000000

 Following cartesian coordinates:
            Coordinates               Weight
  0.000000  0.000000  0.000000      1.000000
  0.033795  0.019529  0.000000      4.000000
  0.067589  0.039058  0.000000      4.000000
  0.101384  0.058586  0.000000      4.000000
  0.135178  0.078115  0.000000      4.000000
  0.168973  0.097644  0.000000      4.000000
  0.202767  0.117173  0.000000      2.000000
  0.033810  0.058560  0.000000      2.000000
  0.067604  0.078089  0.000000      4.000000
  0.101399  0.097618  0.000000      4.000000
  0.135193  0.117147  0.000000      4.000000
  0.168988  0.136675  0.000000      4.000000
  0.202782  0.156204  0.000000      4.000000
 -0.168957 -0.058613  0.000000      4.000000
 -0.135163 -0.039084  0.000000      4.000000
 -0.101368 -0.019555  0.000000      4.000000
 -0.067574 -0.000026  0.000000      4.000000
 -0.033779  0.019503  0.000000      2.000000
  0.067619  0.117120  0.000000      2.000000
  0.101414  0.136649  0.000000      4.000000
  0.135208  0.156178  0.000000      4.000000
  0.169003  0.175707  0.000000      4.000000
  0.202798  0.195236  0.000000      4.000000
 -0.168942 -0.019581  0.000000      4.000000
 -0.135148 -0.000053  0.000000      4.000000
 -0.101353  0.019476  0.000000      4.000000
 -0.067559  0.039005  0.000000      2.000000
  0.101429  0.175680  0.000000      2.000000
  0.135224  0.195209  0.000000      4.000000
  0.169018  0.214738  0.000000      4.000000
  0.202813  0.234267  0.000000      4.000000
 -0.168927  0.019450  0.000000      4.000000
 -0.135133  0.038979  0.000000      4.000000
 -0.101338  0.058508  0.000000      2.000000
  0.135239  0.234241  0.000000      2.000000
  0.169033  0.253769  0.000000      4.000000
  0.202828  0.273298  0.000000      4.000000
 -0.168912  0.058481  0.000000      4.000000
 -0.135117  0.078010  0.000000      2.000000
  0.169049  0.292801  0.000000      2.000000
  0.202843  0.312329  0.000000      4.000000
 -0.168897  0.097513  0.000000      2.000000
  0.202858  0.351361  0.000000      1.000000
  0.000000  0.000000  0.018479      2.000000
  0.033795  0.019529  0.018479      8.000000
  0.067589  0.039058  0.018479      8.000000
  0.101384  0.058586  0.018479      8.000000
  0.135178  0.078115  0.018479      8.000000
  0.168973  0.097644  0.018479      8.000000
  0.202767  0.117173  0.018479      4.000000
  0.033810  0.058560  0.018479      4.000000
  0.067604  0.078089  0.018479      8.000000
  0.101399  0.097618  0.018479      8.000000
  0.135193  0.117147  0.018479      8.000000
  0.168988  0.136675  0.018479      8.000000
  0.202782  0.156204  0.018479      8.000000
 -0.168957 -0.058613  0.018479      8.000000
 -0.135163 -0.039084  0.018479      8.000000
 -0.101368 -0.019555  0.018479      8.000000
 -0.067574 -0.000026  0.018479      8.000000
[...]
  0.135224  0.195209  0.073917      4.000000
  0.169018  0.214738  0.073917      4.000000
  0.202813  0.234267  0.073917      4.000000
 -0.168927  0.019450  0.073917      4.000000
 -0.135133  0.038979  0.073917      4.000000
 -0.101338  0.058508  0.073917      2.000000
  0.135239  0.234241  0.073917      2.000000
  0.169033  0.253769  0.073917      4.000000
  0.202828  0.273298  0.073917      4.000000
 -0.168912  0.058481  0.073917      4.000000
 -0.135117  0.078010  0.073917      2.000000
  0.169049  0.292801  0.073917      2.000000
  0.202843  0.312329  0.073917      4.000000
 -0.168897  0.097513  0.073917      2.000000
  0.202858  0.351361  0.073917      1.000000

 TETIRR: Found   1728 inequivalent tetrahedra from     6912

 I would recommend the setting:
   dimension x,y,z NGX =    20 NGY =   20 NGZ =   54
 SYSTEM =  graphite
 POSCAR =  CIF file

 Startparameter for this run:
   NWRITE =      2    write-flag & timer
   PREC   = accura    normal or accurate (medium, high low for compatibility)
   ISTART =      0    job   : 0-new  1-cont  2-samecut
   ICHARG =      2    charge: 1-file 2-atom 10-const
   ISPIN  =      1    spin polarized calculation?
   LNONCOLLINEAR =      F non collinear calculations
   LSORBIT =      F    spin-orbit coupling
[...]
 k-point 33 :  -0.3333 0.2500 0.0000  plane waves:    1185
 k-point 34 :  -0.2500 0.2500 0.0000  plane waves:    1185
 k-point 35 :   0.3333 0.3333 0.0000  plane waves:    1197
 k-point 36 :   0.4167 0.3333 0.0000  plane waves:    1201
 k-point 37 :   0.5000 0.3333 0.0000  plane waves:    1199
 k-point 38 :  -0.4167 0.3333 0.0000  plane waves:    1187
 k-point 39 :  -0.3333 0.3333 0.0000  plane waves:    1184
 k-point 40 :   0.4167 0.4167 0.0000  plane waves:    1209
 k-point 41 :   0.5000 0.4167 0.0000  plane waves:    1195
 k-point 42 :  -0.4167 0.4167 0.0000  plane waves:    1186
 k-point 43 :   0.5000 0.5000 0.0000  plane waves:    1180
 k-point 44 :   0.0000 0.0000 0.1250  plane waves:    1177
 k-point 45 :   0.0833 0.0000 0.1250  plane waves:    1168
 k-point 46 :   0.1667-0.0000 0.1250  plane waves:    1184
 k-point 47 :   0.2500 0.0000 0.1250  plane waves:    1183
 k-point 48 :   0.3333 0.0000 0.1250  plane waves:    1186
 k-point 49 :   0.4167 0.0000 0.1250  plane waves:    1190
 k-point 50 :   0.5000 0.0000 0.1250  plane waves:    1186
 k-point 51 :   0.0833 0.0833 0.1250  plane waves:    1179
 k-point 52 :   0.1667 0.0833 0.1250  plane waves:    1186
 k-point 53 :   0.2500 0.0833 0.1250  plane waves:    1184
 k-point 54 :   0.3333 0.0833 0.1250  plane waves:    1191
 k-point 55 :   0.4167 0.0833 0.1250  plane waves:    1195
 k-point 56 :   0.5000 0.0833 0.1250  plane waves:    1194
 k-point 57 :  -0.4167 0.0833 0.1250  plane waves:    1190
 k-point 58 :  -0.3333 0.0833 0.1250  plane waves:    1185
 k-point 59 :  -0.2500 0.0833 0.1250  plane waves:    1188
 k-point 60 :  -0.1667 0.0833 0.1250  plane waves:    1179
[...]
 k-point 85 :  -0.4167 0.4167 0.1250  plane waves:    1189
 k-point 86 :   0.5000 0.5000 0.1250  plane waves:    1186
 k-point 87 :   0.0000 0.0000 0.2500  plane waves:    1161
 k-point 88 :   0.0833 0.0000 0.2500  plane waves:    1170
 k-point 89 :   0.1667-0.0000 0.2500  plane waves:    1184
 k-point 90 :   0.2500 0.0000 0.2500  plane waves:    1184
 k-point 91 :   0.3333 0.0000 0.2500  plane waves:    1184
 k-point 92 :   0.4167 0.0000 0.2500  plane waves:    1194
 k-point 93 :   0.5000 0.0000 0.2500  plane waves:    1180
 k-point 94 :   0.0833 0.0833 0.2500  plane waves:    1167
 k-point 95 :   0.1667 0.0833 0.2500  plane waves:    1178
 k-point 96 :   0.2500 0.0833 0.2500  plane waves:    1184
 k-point 97 :   0.3333 0.0833 0.2500  plane waves:    1192
 k-point 98 :   0.4167 0.0833 0.2500  plane waves:    1198
 k-point 99 :   0.5000 0.0833 0.2500  plane waves:    1197
 k-point ** :  -0.4167 0.0833 0.2500  plane waves:    1191
 k-point ** :  -0.3333 0.0833 0.2500  plane waves:    1183
 k-point ** :  -0.2500 0.0833 0.2500  plane waves:    1179
 k-point ** :  -0.1667 0.0833 0.2500  plane waves:    1167
 k-point ** :  -0.0833 0.0833 0.2500  plane waves:    1171
 k-point ** :   0.1667 0.1667 0.2500  plane waves:    1185
 k-point ** :   0.2500 0.1667 0.2500  plane waves:    1189
 k-point ** :   0.3333 0.1667 0.2500  plane waves:    1198
 k-point ** :   0.4167 0.1667 0.2500  plane waves:    1195
 k-point ** :   0.5000 0.1667 0.2500  plane waves:    1199
 k-point ** :  -0.4167 0.1667 0.2500  plane waves:    1190
 k-point ** :  -0.3333 0.1667 0.2500  plane waves:    1185
 k-point ** :  -0.2500 0.1667 0.2500  plane waves:    1179
 k-point ** :  -0.1667 0.1667 0.2500  plane waves:    1187
 k-point ** :   0.2500 0.2500 0.2500  plane waves:    1194
 k-point ** :   0.3333 0.2500 0.2500  plane waves:    1205
 k-point ** :   0.4167 0.2500 0.2500  plane waves:    1205
 k-point ** :   0.5000 0.2500 0.2500  plane waves:    1196
 k-point ** :  -0.4167 0.2500 0.2500  plane waves:    1190
 k-point ** :  -0.3333 0.2500 0.2500  plane waves:    1183
 k-point ** :  -0.2500 0.2500 0.2500  plane waves:    1186
 k-point ** :   0.3333 0.3333 0.2500  plane waves:    1215
 k-point ** :   0.4167 0.3333 0.2500  plane waves:    1205
 k-point ** :   0.5000 0.3333 0.2500  plane waves:    1199
 k-point ** :  -0.4167 0.3333 0.2500  plane waves:    1192
 k-point ** :  -0.3333 0.3333 0.2500  plane waves:    1186
 k-point ** :   0.4167 0.4167 0.2500  plane waves:    1195
 k-point ** :   0.5000 0.4167 0.2500  plane waves:    1197
 k-point ** :  -0.4167 0.4167 0.2500  plane waves:    1195
 k-point ** :   0.5000 0.5000 0.2500  plane waves:    1180
 k-point ** :   0.0000 0.0000 0.3750  plane waves:    1161
 k-point ** :   0.0833 0.0000 0.3750  plane waves:    1167
 k-point ** :   0.1667-0.0000 0.3750  plane waves:    1177
 k-point ** :   0.2500 0.0000 0.3750  plane waves:    1180
 k-point ** :   0.3333 0.0000 0.3750  plane waves:    1188
 k-point ** :   0.4167 0.0000 0.3750  plane waves:    1195
 k-point ** :   0.5000 0.0000 0.3750  plane waves:    1190
 k-point ** :   0.0833 0.0833 0.3750  plane waves:    1177
 k-point ** :   0.1667 0.0833 0.3750  plane waves:    1179
 k-point ** :   0.2500 0.0833 0.3750  plane waves:    1181
 k-point ** :   0.3333 0.0833 0.3750  plane waves:    1187
 k-point ** :   0.4167 0.0833 0.3750  plane waves:    1191
 k-point ** :   0.5000 0.0833 0.3750  plane waves:    1193
 k-point ** :  -0.4167 0.0833 0.3750  plane waves:    1188
 k-point ** :  -0.3333 0.0833 0.3750  plane waves:    1181
 k-point ** :  -0.2500 0.0833 0.3750  plane waves:    1178
 k-point ** :  -0.1667 0.0833 0.3750  plane waves:    1175
 k-point ** :  -0.0833 0.0833 0.3750  plane waves:    1167
 k-point ** :   0.1667 0.1667 0.3750  plane waves:    1180
 k-point ** :   0.2500 0.1667 0.3750  plane waves:    1188
 k-point ** :   0.3333 0.1667 0.3750  plane waves:    1196
 k-point ** :   0.4167 0.1667 0.3750  plane waves:    1201
 k-point ** :   0.5000 0.1667 0.3750  plane waves:    1196
 k-point ** :  -0.4167 0.1667 0.3750  plane waves:    1191
 k-point ** :  -0.3333 0.1667 0.3750  plane waves:    1180
 k-point ** :  -0.2500 0.1667 0.3750  plane waves:    1179
 k-point ** :  -0.1667 0.1667 0.3750  plane waves:    1177
 k-point ** :   0.2500 0.2500 0.3750  plane waves:    1195
 k-point ** :   0.3333 0.2500 0.3750  plane waves:    1210
 k-point ** :   0.4167 0.2500 0.3750  plane waves:    1211
[...]
 k-point ** :   0.3333 0.2500 0.5000  plane waves:    1214
 k-point ** :   0.4167 0.2500 0.5000  plane waves:    1216
 k-point ** :   0.5000 0.2500 0.5000  plane waves:    1202
 k-point ** :  -0.4167 0.2500 0.5000  plane waves:    1186
 k-point ** :  -0.3333 0.2500 0.5000  plane waves:    1176
 k-point ** :  -0.2500 0.2500 0.5000  plane waves:    1180
 k-point ** :   0.3333 0.3333 0.5000  plane waves:    1206
 k-point ** :   0.4167 0.3333 0.5000  plane waves:    1218
 k-point ** :   0.5000 0.3333 0.5000  plane waves:    1192
 k-point ** :  -0.4167 0.3333 0.5000  plane waves:    1188
 k-point ** :  -0.3333 0.3333 0.5000  plane waves:    1188
 k-point ** :   0.4167 0.4167 0.5000  plane waves:    1196
 k-point ** :   0.5000 0.4167 0.5000  plane waves:    1190
 k-point ** :  -0.4167 0.4167 0.5000  plane waves:    1186
 k-point ** :   0.5000 0.5000 0.5000  plane waves:    1180

 maximum and minimum number of plane-waves per node :       411      376

 maximum number of plane-waves:      1218
 maximum index in each direction:
   IXMAX=    5   IYMAX=    4   IZMAX=   13
   IXMIN=   -5   IYMIN=   -5   IZMIN=  -14

 WARNING: aliasing errors must be expected set NGX to  22 to avoid them
 NGY is ok and might be reduce to  20
 WARNING: aliasing errors must be expected set NGZ to  56 to avoid them
 aliasing errors are usually negligible using standard VASP settings
 and one can safely disregard these warnings

 parallel 3D FFT for wavefunctions:
    minimum data exchange during FFTs selected (reduces bandwidth)
 parallel 3D FFT for charge:
    minimum data exchange during FFTs selected (reduces bandwidth)

 Broyden mixing: mesh for mixing (old mesh)
   NGX =  9   NGY =  9   NGZ = 27
  (NGX  = 40   NGY  = 40   NGZ  =108)
  gives a total of   2187 points

 initial charge density was supplied:
 charge density of overlapping atoms calculated
 number of electron      16.0000000 magnetization
 keeping initial charge density in first step

 Maximum index for augmentation-charges         1309 (set IRDMAX)

 First call to EWALD:  gamma=   0.539
 Maximum number of real-space cells 4x 4x 2
 Maximum number of reciprocal cells 2x 2x 5

 FEWALD executed in parallel

----------------------------------------- Iteration    1(   1)  ---------------------------------------

 BZINTS: Fermi energy: 14.229871; 16.000000 electrons
         Band energy: -10.584874;  BLOECHL correction: -0.419661

 eigenvalue-minimisations  :  5168
 total energy-change (2. order) : 0.5788008E+02  (-0.9042958E+03)
 number of electron      16.0000000 magnetization
 augmentation part       16.0000000 magnetization

 Free energy of the ion-electron system (eV)
  alpha Z        PSCENC =        36.59889425
  Ewald energy   TEWEN  =      -455.71751110
  -Hartree energ DENC   =      -151.78964578
  -exchange      EXHF   =         0.00000000
  -V(xc)+E(xc)   XCENC  =        55.37398005
  PAW double counting   =       151.32577238     -155.92769107
  entropy T*S    EENTRO =         0.00000000
  eigenvalues    EBANDS =       -10.58487394
  atomic energy  EATOM  =       588.60115103
  free energy    TOTEN  =        57.88007583 eV

  energy without entropy =       57.88007583  energy(sigma->0) =       57.88007583

[...]

 BZINTS: Fermi energy:  3.574338; 16.000000 electrons
         Band energy:-103.254473;  BLOECHL correction: -0.000210

 eigenvalue-minimisations  :  7396
 total energy-change (2. order) :-0.9266960E+02  (-0.8514225E+02)
 number of electron      16.0000000 magnetization
 augmentation part       16.0000000 magnetization

[...]

 BZINTS: Fermi energy:  3.097055; 16.000000 electrons
         Band energy:-107.675687;  BLOECHL correction: -0.000032

[...]

 Broyden mixing:
  rms(total) = 0.78075E+00    rms(broyden)= 0.78066E+00
  rms(prec ) = 0.12497E+01
  weight for this iteration     100.00

[...]

 eigenvalues of (default mixing * dielectric matrix)
  average eigenvalue GAMMA=   2.0347
  2.0347

[...]

 eigenvalue-minimisations  :  6180
 total energy-change (2. order) : 0.5748501E+00  (-0.1867744E+00)
 number of electron      16.0000001 magnetization
 augmentation part        0.3850744 magnetization

[...]

 Broyden mixing:
  rms(total) = 0.11409E-04    rms(broyden)= 0.11394E-04
  rms(prec ) = 0.14731E-04
  weight for this iteration     100.00

 eigenvalues of (default mixing * dielectric matrix)
  average eigenvalue GAMMA=   1.8755
  3.0786  2.5831  2.2641  1.9430  2.0918  1.0295  1.0295  0.9843

[...]

----------------------------------------- Iteration    1(  14)  ---------------------------------------

 BZINTS: Fermi energy:  4.603210; 16.000000 electrons
         Band energy: -71.975611;  BLOECHL correction: -0.000079

 eigenvalue-minimisations  :  4256
 total energy-change (2. order) :-0.1055923E-08  (-0.8750220E-10)
 number of electron      16.0000001 magnetization
 augmentation part        0.3834468 magnetization

 Free energy of the ion-electron system (eV)
  alpha Z        PSCENC =        36.59889425
  Ewald energy   TEWEN  =      -455.71751110
  -Hartree energ DENC   =      -186.80951951
  -exchange      EXHF   =         0.00000000
  -V(xc)+E(xc)   XCENC  =        57.63459880
  PAW double counting   =       277.80038537     -282.96602269
  entropy T*S    EENTRO =         0.00000000
  eigenvalues    EBANDS =       -71.97561066
  atomic energy  EATOM  =       588.60115103
  free energy    TOTEN  =       -36.83363449 eV

  energy without entropy =      -36.83363449  energy(sigma->0) =      -36.83363449

 average (electrostatic) potential at core
  the test charge radii are     0.6991
  (the norm of the test charge is              1.0000)
       1 -50.7933       2 -50.7933       3 -50.7720       4 -50.7720

 E-fermi :   4.6032     XC(G=0): -10.2476     alpha+bet :-11.2732

 k-point     1 :       0.0000    0.0000    0.0000
  band No.  band energies     occupation
      1     -15.0169      2.00000
      2     -14.7352      2.00000
      3      -3.8599      2.00000
      4      -1.9740      2.00000
      5       1.5989      2.00000
      6       1.6155      2.00000
      7       1.6162      2.00000
      8       1.6322      2.00000
      9       8.8447      0.00000
     10      12.9377      0.00000
     11      12.9437      0.00000
     12      12.9862      0.00000

[...]

 k-point   215 :       0.5000    0.5000    0.5000
  band No.  band energies     occupation
      1      -9.6419      2.00000
      2      -9.6419      2.00000
      3      -8.5924      2.00000
      4      -8.5924      2.00000
      5      -1.7505      2.00000
      6      -1.7505      2.00000
      7       2.2491      2.00000
      8       2.2491      2.00000
      9       6.2619      0.00000
     10       6.2619      0.00000
     11      12.0327      0.00000
     12      12.0327      0.00000

 soft charge-density along one line, spin component           1
         0         1         2         3         4         5         6         7         8         9
 total charge-density along one line

------------------------ aborting loop because EDIFF is reached ----------------------------------------

         DFTD3 V3.0 Rev 1
 IVDW         = 12
 DF pbe
 parameters
 VDW_S6       =    1.0000
 VDW_S8       =    0.7875
 VDW_A1       =    0.4289
 VDW_A2       =    4.4407
 k1-k3        =   16.0000    1.3333   -4.0000
 VDW_RADIUS   =   50.2022 A
 VDW_CNRADIUS =   21.1671 A
 Edisp (eV)   -0.61928

 E6    (eV) :    -0.4440
 E8    (eV) :    -0.1753
 % E8        : 28.31

  FORCE on cell =-STRESS in cart. coord.  units (eV):
  Direction    XX          YY          ZZ          XY          YZ          ZX
  Alpha Z    36.59889    36.59889    36.59889
  Ewald      82.22883    82.16913  -620.11580    -0.05170     0.00000     0.00000
  Hartree   164.25724   164.25863  -141.70625     0.00120    -0.00000    -0.00000
  E(xc)     -58.44775   -58.44860   -60.59900    -0.00073     0.00000     0.00000
  Local    -449.19407  -449.15026   525.37889     0.03794    -0.00000    -0.00000
  n-local   -14.43410   -13.68926   -12.83684    -0.23176     0.01150    -0.00807
  augment    -1.54695    -1.54683    -1.41756     0.00010    -0.00000    -0.00000
  Kinetic   243.82149   236.69403   275.32348     2.14492    -0.15961     0.10541
  Fock        0.00000     0.00000     0.00000     0.00000     0.00000     0.00000
  vdW        -0.09614    -0.09492    -0.74226     0.00106     0.00000    -0.00000
  Total      -0.03446     0.01274    -0.11644     0.04087     0.00000    -0.00000
  in kB      -1.54978     0.57304    -5.23730     1.83841     0.00000    -0.00000

 VOLUME and BASIS-vectors are now :
  energy-cutoff  :      600.00
  volume of cell :       35.62
      direct lattice vectors                 reciprocal lattice vectors
     2.466437249 -0.000959643  0.000000000     0.405534294  0.234345762  0.000000000
    -1.234049700  2.135517493  0.000000000     0.000182236  0.468375882  0.000000000
     0.000000000  0.000000000  6.764385743     0.000000000  0.000000000  0.147833083

  length of vectors
     2.466437436  2.466437436  6.764385743     0.468375917  0.468375917  0.147833083

 FORCES acting on ions
    electron-ion (+dipol)            ewald-force                    non-local-force                 convergence-correction
   -.119E+00 0.687E-01 0.922E-12   0.107E+00 -.620E-01 -.182E-13   -.671E-02 0.388E-02 0.000E+00   -.366E-06 0.211E-06 -.439E-13
   0.119E+00 -.687E-01 0.656E-13   -.107E+00 0.620E-01 0.182E-13   0.671E-02 -.388E-02 0.000E+00   0.366E-06 -.212E-06 0.599E-13
   0.113E+00 -.654E-01 0.840E-12   -.107E+00 0.618E-01 -.182E-13   0.418E-02 -.241E-02 0.217E-18   -.700E-06 0.404E-06 -.454E-13
   -.113E+00 0.655E-01 -.971E-12   0.107E+00 -.618E-01 0.182E-13   -.418E-02 0.241E-02 -.217E-18   0.700E-06 -.404E-06 0.581E-13
   -.677E-05 -.117E-04 0.856E-12   -.777E-14 -.886E-14 0.000E+00   0.000E+00 -.555E-16 0.000E+00   -.117E-10 -.202E-10 0.286E-13

 POSITION                                       TOTAL-FORCE (eV/Angst)
      2.46402      0.00044      1.69110        -0.018358      0.010599     -0.000000
     -1.23163      2.13412      5.07329         0.018358     -0.010599     -0.000000
     -0.00332      1.42496      1.69110         0.010624     -0.006134     -0.000000
      1.23571      0.70960      5.07329        -0.010624      0.006134      0.000000
    total drift:                               -0.000007     -0.000012      0.000000

  FREE ENERGIE OF THE ION-ELECTRON SYSTEM (eV)
  free  energy   TOTEN  =       -37.45291839 eV

  energy  without entropy=      -37.45291839  energy(sigma->0) =      -37.45291839

 reached required accuracy - stopping structural energy minimisation
 BZINTS: Fermi energy:  4.603210; 16.000000 electrons
         Band energy: -71.975611;  BLOECHL correction: -0.000079