 vasp.5.3.5 31Mar14 (build Nov 02 2014 15:17:37) complex

 executed on        ion-Intel-MKL date 2016.08.13  15:47:40

 INCAR:
 POTCAR:   PAW_PBE C 08Apr2002

 POTCAR:   PAW_PBE C 08Apr2002
   VRHFIN =C: s2p2

   TITEL  = PAW_PBE C 08Apr2002
   POMASS =   12.011; ZVAL   =    4.000    mass and valenz
   ENMAX  =  400.000; ENMIN  =  300.000 eV
   QCUT   =   -5.516; QGAM   =   11.032    optimization parameters

   Description
     l     E      TYP  RCUT    TYP  RCUT
     0   .000     23  1.200
     0   .000     23  1.200
     1   .000     23  1.500
     1  2.500     23  1.500
     2   .000      7  1.500

 PAW_PBE C 08Apr2002                    :

 POSCAR: C
  positions in direct lattice
 exchange correlation table for  LEXCH =        8
   RHO(1)=    0.500       N(1)  =     2000
   RHO(2)=  100.500       N(2)  =     4000

 ion  position               nearest neighbor table
   1  0.501  0.000  0.126-  20 1.42  18 1.42  19 1.43
   2  1.000  0.000  0.125-  19 1.42  17 1.42  20 1.42
   3  0.500  0.500  0.125-  18 1.42  20 1.42  17 1.42
   4  1.000  0.500  0.125-  17 1.42  19 1.42  18 1.42
   5  0.500  0.000  0.625-  24 1.42  22 1.42  23 1.42
   6  1.000  0.000  0.625-  23 1.42  21 1.42  24 1.42
   7  0.500  0.500  0.625-  22 1.42  24 1.42  21 1.42
   8  1.000  0.500  0.625-  21 1.42  23 1.42  22 1.42
   9  0.000  0.500  0.375-  28 1.42  27 1.42  26 1.42
  10  0.500  0.500  0.375-  27 1.42  28 1.42  25 1.42
  11  0.000  1.000  0.375-  26 1.42  25 1.42  28 1.42
  12  0.500  1.000  0.375-  25 1.42  26 1.42  27 1.42
  13  0.000  0.500  0.875-  32 1.42  31 1.42  30 1.42
  14  0.500  0.500  0.875-  31 1.42  32 1.42  29 1.42
  15  0.000  1.000  0.875-  30 1.42  29 1.42  32 1.42
  16  0.500  1.000  0.875-  29 1.42  30 1.42  31 1.42
  17  0.167  0.333  0.125-   4 1.42   2 1.42   3 1.42
  18  0.667  0.333  0.125-   3 1.42   4 1.42   1 1.42
  19  0.167  0.833  0.125-   2 1.42   4 1.42   1 1.43
  20  0.667  0.833  0.125-   1 1.42   3 1.42   2 1.42
  21  0.167  0.333  0.625-   8 1.42   6 1.42   7 1.42
  22  0.667  0.333  0.625-   7 1.42   5 1.42   8 1.42
  23  0.167  0.833  0.625-   6 1.42   8 1.42   5 1.42
  24  0.667  0.833  0.625-   5 1.42   7 1.42   6 1.42
  25  0.333  0.167  0.375-  12 1.42  11 1.42  10 1.42
  26  0.833  0.167  0.375-  11 1.42  12 1.42   9 1.42
  27  0.333  0.667  0.375-  10 1.42   9 1.42  12 1.42
  28  0.833  0.667  0.375-   9 1.42  10 1.42  11 1.42
  29  0.333  0.167  0.875-  16 1.42  15 1.42  14 1.42
  30  0.833  0.167  0.875-  15 1.42  16 1.42  13 1.42
  31  0.333  0.667  0.875-  14 1.42  13 1.42  16 1.42
  32  0.833  0.667  0.875-  13 1.42  14 1.42  15 1.42

  LATTYP: Found a base centered orthorhombic cell.
 ALAT       =     4.9339256766
 B/A-ratio  =     1.7322311103
 C/A-ratio  =     3.1352736810

  Lattice vectors:

 A1 = (   4.9343108848,  -0.0002224000,   0.0000000000)
 A2 = (  -2.4673480464,   4.2731273763,   0.0000000000)
 A3 = (   0.0000000000,   0.0000000000,  15.4692073180)

Analysis of symmetry for initial positions (statically):
 Subroutine PRICEL returns:
 Original cell was already a primitive cell.

 Routine SETGRP: Setting up the symmetry group for a
 base centered orthorhombic supercell.

 Subroutine GETGRP returns: Found  1 space group operations
 (whereof  1 operations were pure point group operations)
 out of a pool of  8 trial point group operations.

The static configuration has the point symmetry C_1 .

Analysis of symmetry for dynamics (positions and initial velocities):
 Subroutine PRICEL returns:
 Original cell was already a primitive cell.

 Routine SETGRP: Setting up the symmetry group for a
 base centered orthorhombic supercell.

 Subroutine GETGRP returns: Found  1 space group operations
 (whereof  1 operations were pure point group operations)
 out of a pool of  8 trial point group operations.

The dynamic configuration has the point symmetry C_1 .

 KPOINTS: B4C B11C-CBC

Automatic generation of k-mesh.
Space group operators:
 irot       det(A)        alpha          n_x          n_y          n_z        tau_x        tau_y        tau_z
    1     1.000000     0.000001     1.000000     0.000000     0.000000     0.000000     0.000000     0.000000

 Subroutine IBZKPT returns following result:

 Found    163 irreducible k-points:

 Following reciprocal coordinates:
            Coordinates               Weight
  0.000000  0.000000  0.000000      1.000000
  0.111111  0.000000  0.000000      2.000000
  0.222222  0.000000  0.000000      2.000000
  0.333333  0.000000  0.000000      2.000000
  0.444444  0.000000  0.000000      2.000000
 -0.000000  0.111111  0.000000      2.000000
  0.111111  0.111111  0.000000      2.000000
  0.222222  0.111111  0.000000      2.000000
  0.333333  0.111111  0.000000      2.000000
  0.444444  0.111111  0.000000      2.000000
 -0.444444  0.111111  0.000000      2.000000
 -0.333333  0.111111  0.000000      2.000000
 -0.222222  0.111111  0.000000      2.000000
 -0.111111  0.111111  0.000000      2.000000
 -0.000000  0.222222  0.000000      2.000000
  0.111111  0.222222  0.000000      2.000000
  0.222222  0.222222  0.000000      2.000000
  0.333333  0.222222  0.000000      2.000000
  0.444444  0.222222  0.000000      2.000000
 -0.444444  0.222222  0.000000      2.000000
 -0.333333  0.222222  0.000000      2.000000
 -0.222222  0.222222  0.000000      2.000000
 -0.111111  0.222222  0.000000      2.000000
 -0.000000  0.333333  0.000000      2.000000
  0.111111  0.333333  0.000000      2.000000
  0.222222  0.333333  0.000000      2.000000
  0.333333  0.333333  0.000000      2.000000
  0.444444  0.333333  0.000000      2.000000
 -0.444444  0.333333  0.000000      2.000000
 -0.333333  0.333333  0.000000      2.000000
 -0.222222  0.333333  0.000000      2.000000
 -0.111111  0.333333  0.000000      2.000000
 -0.000000  0.444444  0.000000      2.000000
  0.111111  0.444444  0.000000      2.000000
  0.222222  0.444444  0.000000      2.000000
  0.333333  0.444444  0.000000      2.000000
  0.444444  0.444444  0.000000      2.000000
 -0.444444  0.444444  0.000000      2.000000
 -0.333333  0.444444  0.000000      2.000000
 -0.222222  0.444444  0.000000      2.000000
 -0.111111  0.444444  0.000000      2.000000
  0.000000  0.000000  0.250000      2.000000
  0.111111  0.000000  0.250000      2.000000
  0.222222  0.000000  0.250000      2.000000
  0.333333  0.000000  0.250000      2.000000
  0.444444  0.000000  0.250000      2.000000
 -0.444444  0.000000  0.250000      2.000000
 -0.333333 -0.000000  0.250000      2.000000
 -0.222222  0.000000  0.250000      2.000000
 -0.111111 -0.000000  0.250000      2.000000
 -0.000000  0.111111  0.250000      2.000000
  0.111111  0.111111  0.250000      2.000000
  0.222222  0.111111  0.250000      2.000000
  0.333333  0.111111  0.250000      2.000000
  0.444444  0.111111  0.250000      2.000000
 -0.444444  0.111111  0.250000      2.000000
 -0.333333  0.111111  0.250000      2.000000
 -0.222222  0.111111  0.250000      2.000000
 -0.111111  0.111111  0.250000      2.000000
 -0.000000  0.222222  0.250000      2.000000
[...]
  0.333333  0.333333  0.500000      2.000000
  0.444444  0.333333  0.500000      2.000000
 -0.444444  0.333333  0.500000      2.000000
 -0.333333  0.333333  0.500000      2.000000
 -0.222222  0.333333  0.500000      2.000000
 -0.111111  0.333333  0.500000      2.000000
 -0.000000  0.444444  0.500000      2.000000
  0.111111  0.444444  0.500000      2.000000
  0.222222  0.444444  0.500000      2.000000
  0.333333  0.444444  0.500000      2.000000
  0.444444  0.444444  0.500000      2.000000
 -0.444444  0.444444  0.500000      2.000000
 -0.333333  0.444444  0.500000      2.000000
 -0.222222  0.444444  0.500000      2.000000
 -0.111111  0.444444  0.500000      2.000000

 Following cartesian coordinates:
            Coordinates               Weight
  0.000000  0.000000  0.000000      1.000000
  0.022519  0.013002  0.000000      2.000000
  0.045037  0.026005  0.000000      2.000000
  0.067556  0.039007  0.000000      2.000000
  0.090075  0.052010  0.000000      2.000000
  0.000001  0.026003  0.000000      2.000000
  0.022520  0.039005  0.000000      2.000000
  0.045038  0.052008  0.000000      2.000000
  0.067557  0.065010  0.000000      2.000000
  0.090076  0.078013  0.000000      2.000000
 -0.090073 -0.026007  0.000000      2.000000
 -0.067555 -0.013005  0.000000      2.000000
 -0.045036 -0.000002  0.000000      2.000000
 -0.022517  0.013000  0.000000      2.000000
  0.000002  0.052006  0.000000      2.000000
  0.022521  0.065008  0.000000      2.000000
  0.045040  0.078011  0.000000      2.000000
  0.067558  0.091013  0.000000      2.000000
  0.090077  0.104016  0.000000      2.000000
 -0.090072 -0.000004  0.000000      2.000000
 -0.067554  0.012998  0.000000      2.000000
 -0.045035  0.026001  0.000000      2.000000
 -0.022516  0.039003  0.000000      2.000000
  0.000004  0.078009  0.000000      2.000000
  0.022522  0.091011  0.000000      2.000000
  0.045041  0.104014  0.000000      2.000000
  0.067559  0.117016  0.000000      2.000000
  0.090078  0.130019  0.000000      2.000000
 -0.090071  0.025999  0.000000      2.000000
 -0.067552  0.039001  0.000000      2.000000
 -0.045034  0.052004  0.000000      2.000000
 -0.022515  0.065006  0.000000      2.000000
  0.000005  0.104012  0.000000      2.000000
  0.022523  0.117014  0.000000      2.000000
  0.045042  0.130017  0.000000      2.000000
  0.067561  0.143019  0.000000      2.000000
  0.090079  0.156022  0.000000      2.000000
 -0.090070  0.052002  0.000000      2.000000
 -0.067551  0.065004  0.000000      2.000000
 -0.045033  0.078007  0.000000      2.000000
 -0.022514  0.091009  0.000000      2.000000
  0.000000  0.000000  0.016161      2.000000
  0.022519  0.013002  0.016161      2.000000
  0.045037  0.026005  0.016161      2.000000
  0.067556  0.039007  0.016161      2.000000
  0.090075  0.052010  0.016161      2.000000
 -0.090075 -0.052010  0.016161      2.000000
 -0.067556 -0.039007  0.016161      2.000000
 -0.045037 -0.026005  0.016161      2.000000
 -0.022519 -0.013002  0.016161      2.000000
  0.000001  0.026003  0.016161      2.000000
  0.022520  0.039005  0.016161      2.000000
  0.045038  0.052008  0.016161      2.000000
  0.067557  0.065010  0.016161      2.000000
  0.090076  0.078013  0.016161      2.000000
 -0.090073 -0.026007  0.016161      2.000000
 -0.067555 -0.013005  0.016161      2.000000
 -0.045036 -0.000002  0.016161      2.000000
 -0.022517  0.013000  0.016161      2.000000
  0.000002  0.052006  0.016161      2.000000
[...]
  0.067559  0.117016  0.032322      2.000000
  0.090078  0.130019  0.032322      2.000000
 -0.090071  0.025999  0.032322      2.000000
 -0.067552  0.039001  0.032322      2.000000
 -0.045034  0.052004  0.032322      2.000000
 -0.022515  0.065006  0.032322      2.000000
  0.000005  0.104012  0.032322      2.000000
  0.022523  0.117014  0.032322      2.000000
  0.045042  0.130017  0.032322      2.000000
  0.067561  0.143019  0.032322      2.000000
  0.090079  0.156022  0.032322      2.000000
 -0.090070  0.052002  0.032322      2.000000
 -0.067551  0.065004  0.032322      2.000000
 -0.045033  0.078007  0.032322      2.000000
 -0.022514  0.091009  0.032322      2.000000

[...]

[...]

 eigenvalue-minimisations  : 17952
 total energy-change (2. order) : 0.2789129E-06  (-0.6433771E-06)
 number of electron     127.9999996 magnetization
 augmentation part        3.0637233 magnetization

 Free energy of the ion-electron system (eV)
  alpha Z        PSCENC =       255.81307994
  Ewald energy   TEWEN  =     -2935.68242892
  -Hartree energ DENC   =     -2024.54292418
  -exchange      EXHF   =         0.00000000
  -V(xc)+E(xc)   XCENC  =       460.32624016
  PAW double counting   =      2218.28541071    -2259.58911049
  entropy T*S    EENTRO =         0.00000000
  eigenvalues    EBANDS =      -718.52422742
  atomic energy  EATOM  =      4708.80920826
  free energy    TOTEN  =      -295.10475194 eV

  energy without entropy =     -295.10475194  energy(sigma->0) =     -295.10475194

 average (electrostatic) potential at core
  the test charge radii are     0.6991
  (the norm of the test charge is              1.0000)
       1 -51.9167       2 -51.9166       3 -51.9180       4 -51.9152       5 -51.9169
       6 -51.9169       7 -51.9169       8 -51.9169       9 -51.9160      10 -51.9161
      11 -51.9160      12 -51.9161      13 -51.9159      14 -51.9159      15 -51.9159
      16 -51.9159      17 -51.9108      18 -51.9108      19 -51.9106      20 -51.9111
      21 -51.9110      22 -51.9110      23 -51.9110      24 -51.9110      25 -51.9110
      26 -51.9110      27 -51.9110      28 -51.9111      29 -51.9109      30 -51.9109
      31 -51.9109      32 -51.9109

 E-fermi :   3.5092     XC(G=0):  -9.3352     alpha+bet : -9.8494

 k-point     1 :       0.0000    0.0000    0.0000
  band No.  band energies     occupation
      1     -16.0302      2.00000
      2     -15.9852      2.00000
      3     -15.9849      2.00000
      4     -15.9391      2.00000
      5     -10.7676      2.00000
      6     -10.7655      2.00000
      7     -10.7641      2.00000
      8     -10.7527      2.00000
      9     -10.7496      2.00000
     10     -10.7495      2.00000
     11     -10.7488      2.00000
     12     -10.7488      2.00000
     13     -10.7461      2.00000
     14     -10.7350      2.00000
     15     -10.7338      2.00000
     16     -10.7313      2.00000
     17      -9.7159      2.00000
     18      -9.7126      2.00000
     19      -9.7112      2.00000
     20      -9.7050      2.00000
     21      -9.7019      2.00000
     22      -9.7009      2.00000
     23      -9.7005      2.00000
     24      -9.7004      2.00000
     25      -9.6975      2.00000
     26      -9.6899      2.00000
     27      -9.6875      2.00000
     28      -9.6851      2.00000
     29      -4.5203      2.00000
     30      -4.1017      2.00000
     31      -4.1008      2.00000
     32      -3.6250      2.00000
     33      -2.8941      2.00000
     34      -2.8907      2.00000
     35      -2.8878      2.00000
     36      -2.8870      2.00000
     37      -2.8847      2.00000
     38      -2.8846      2.00000
     39      -2.8844      2.00000
     40      -2.8815      2.00000
     41      -2.8802      2.00000
     42      -2.8796      2.00000
     43      -2.8778      2.00000
     44      -2.8729      2.00000
     45       0.4760      2.00000
     46       0.4859      2.00000
     47       0.4876      2.00000
     48       0.4886      2.00000
     49       0.4906      2.00000
     50       0.4923      2.00000
     51       0.4933      2.00000
     52       0.5028      2.00000
     53       0.9963      2.00000
     54       0.9979      2.00000
     55       0.9995      2.00000
     56       1.1494      2.00000
     57       1.1529      2.00000
     58       1.1531      2.00000
     59       1.1532      2.00000
     60       1.1533      2.00000
[...]
     70       5.1779      0.00000
     71       5.1784      0.00000
     72       5.1785      0.00000
     73       5.1826      0.00000
     74       5.3997      0.00000
     75       5.4039      0.00000
     76       5.4061      0.00000
     77       6.9443      0.00000
     78       8.6503      0.00000
     79       8.6522      0.00000
     80      10.8137      0.00000
     81      10.8195      0.00000
     82      10.8227      0.00000
     83      10.8783      0.00000
     84      10.8817      0.00000

[...]

 k-point   163 :      -0.1111    0.4444    0.5000
  band No.  band energies     occupation
      1     -15.0717      2.00000
      2     -15.0715      2.00000
      3     -15.0117      2.00000
      4     -15.0116      2.00000
      5     -13.7817      2.00000
      6     -13.7814      2.00000
      7     -13.7273      2.00000
      8     -13.7272      2.00000
      9     -12.5245      2.00000
     10     -12.5243      2.00000
     11     -12.4757      2.00000
     12     -12.4756      2.00000
     13     -10.7429      2.00000
     14     -10.7428      2.00000
     15     -10.7037      2.00000
     16     -10.7036      2.00000
     17      -8.2694      2.00000
     18      -8.2679      2.00000
     19      -8.2430      2.00000
     20      -8.2413      2.00000
     21      -6.6146      2.00000
     22      -6.6134      2.00000
     23      -6.5915      2.00000
     24      -6.5905      2.00000
     25      -5.6219      2.00000
     26      -5.6205      2.00000
     27      -5.6031      2.00000
     28      -5.6020      2.00000
     29      -5.3644      2.00000
     30      -5.3639      2.00000
     31      -5.3420      2.00000
     32      -5.3415      2.00000
     33      -4.1834      2.00000
     34      -4.1819      2.00000
     35      -4.1690      2.00000
     36      -4.1671      2.00000
     37      -3.2712      2.00000
     38      -3.2705      2.00000
     39      -2.6704      2.00000
     40      -2.6699      2.00000
     41      -2.5217      2.00000
     42      -2.5203      2.00000
     43      -2.5092      2.00000
     44      -2.5082      2.00000
     45      -2.2684      2.00000
     46      -2.2682      2.00000
     47      -2.2592      2.00000
     48      -2.2591      2.00000
     49      -1.7641      2.00000
     50      -1.7634      2.00000
     51      -1.2145      2.00000
     52      -1.2140      2.00000
     53      -1.1427      2.00000
     54      -1.1414      2.00000
     55      -1.1358      2.00000
     56      -1.1341      2.00000
     57      -0.3333      2.00000
     58      -0.3324      2.00000
     59       0.1551      2.00000
     60       0.1559      2.00000
[...]
     70       7.1741      0.00000
     71       7.3720      0.00000
     72       7.3731      0.00000
     73       8.6013      0.00000
     74       8.6021      0.00000
     75       9.0128      0.00000
     76       9.0151      0.00000
     77       9.2398      0.00000
     78       9.2412      0.00000
     79      10.2606      0.00000
     80      10.2640      0.00000
     81      11.3111      0.00000
     82      11.3140      0.00000
     83      11.5883      0.00000
     84      11.5891      0.00000

 soft charge-density along one line, spin component           1
         0         1         2         3         4         5         6         7         8         9
 total charge-density along one line

------------------------ aborting loop because EDIFF is reached ----------------------------------------

         DFTD3 V3.0 Rev 1
 IVDW         = 11
 DF pbe
 parameters
 VDW_S6       =    1.0000
 VDW_S8       =    0.7220
 VDW_SR       =    1.2170
 rs18     =    1.0000
 alpha6   =   14.0000
 alpha8   =   16.0000
 k1-k3    =   16.0000    1.3333   -4.0000
 VDW_RADIUS   =   50.2022 A
 VDW_CNRADIUS =   21.1671 A
 Edisp (eV)   -2.48649

 E6    (eV) :    -1.6870
 E8    (eV) :    -0.7995
 % E8        : 32.15

  FORCE on cell =-STRESS in cart. coord.  units (eV):
  Direction    XX          YY          ZZ          XY          YZ          ZX
  Alpha Z   255.81308   255.81308   255.81308
  Ewald    1364.87877  1364.48054 -5665.06078    -1.01101     0.00004    -0.00732
  Hartree  1843.53519  1843.48732 -1662.47724    -0.13747     0.00006    -0.00171
  E(xc)    -466.86598  -466.86818  -485.20427    -0.00461    -0.00001    -0.00001
  Local   -4792.89678 -4792.52411  5472.52615     0.96466     0.00007     0.00684
  n-local  -112.41759  -112.43244  -102.35516    -0.01682     0.00015    -0.00042
  augment   -12.34806   -12.34740   -11.32188     0.00159    -0.00000     0.00003
  Kinetic  1920.27691  1920.43441  2198.48813     0.26154    -0.00265     0.00882
  Fock        0.00000     0.00000     0.00000     0.00000     0.00000     0.00000
  vdW        -0.53376    -0.53333    -3.97614     0.00051     0.00000    -0.00000
  Total      -0.55823    -0.49010    -3.56812     0.05840    -0.00234     0.00622
  in kB      -2.74216    -2.40752   -17.52754     0.28688    -0.01149     0.03058

 VOLUME and BASIS-vectors are now :
  energy-cutoff  :      600.00
  volume of cell :      326.16
      direct lattice vectors                 reciprocal lattice vectors
     4.934310885 -0.000222400  0.000000000     0.202667819  0.117022500  0.000000000
    -2.467348046  4.273127376  0.000000000     0.000010548  0.234026730  0.000000000
     0.000000000  0.000000000 15.469207318     0.000000000  0.000000000  0.064644553

  length of vectors
     4.934310890  4.934310890 15.469207318     0.234026730  0.234026730  0.064644553

 FORCES acting on ions
    electron-ion (+dipol)            ewald-force                    non-local-force                 convergence-correction
   0.668E+00 -.204E-02 -.204E+01   -.767E+00 0.450E-02 0.217E+01   -.828E-01 0.126E-02 -.180E+00   0.311E-05 0.348E-05 -.921E-01
   -.169E+00 0.275E-03 0.495E+00   0.189E+00 0.150E-02 -.386E+00   0.163E-01 0.120E-02 -.244E-01   0.975E-04 0.417E-05 -.915E-01
   -.156E-01 0.891E-01 0.495E+00   0.139E-01 -.997E-01 -.386E+00   0.678E-02 -.435E-02 -.245E-01   0.308E-04 -.349E-04 -.915E-01
   -.157E-01 -.883E-01 0.495E+00   0.139E-01 0.103E+00 -.386E+00   0.686E-02 0.654E-02 -.244E-01   0.304E-04 0.427E-04 -.915E-01
   -.279E-02 0.356E-03 -.176E+00   -.267E-02 0.151E-02 0.847E-01   -.264E-02 0.112E-02 0.407E-03   -.523E-04 0.635E-05 0.913E-01
   -.283E-02 0.357E-03 -.176E+00   -.263E-02 0.151E-02 0.845E-01   -.264E-02 0.112E-02 0.408E-03   -.512E-04 0.524E-05 0.913E-01
   -.281E-02 0.368E-03 -.176E+00   -.265E-02 0.150E-02 0.845E-01   -.264E-02 0.112E-02 0.408E-03   -.511E-04 0.537E-05 0.913E-01
   -.281E-02 0.346E-03 -.176E+00   -.265E-02 0.153E-02 0.845E-01   -.264E-02 0.112E-02 0.408E-03   -.524E-04 0.574E-05 0.913E-01
   -.117E-03 -.187E-02 -.496E-02   0.267E-02 0.240E-03 0.780E-01   0.177E-02 -.114E-02 -.379E-03   0.261E-04 -.314E-04 -.731E-01
   -.893E-04 0.158E-02 -.487E-02   0.267E-02 -.332E-02 0.780E-01   0.171E-02 -.107E-02 -.474E-03   0.308E-04 -.358E-04 -.731E-01
   -.309E-02 -.177E-03 -.492E-02   0.575E-02 -.154E-02 0.780E-01   0.168E-02 -.105E-02 -.426E-03   0.322E-04 -.323E-04 -.731E-01
   0.313E-02 -.165E-03 -.320E-01   -.638E-03 -.154E-02 0.105E+00   0.179E-02 -.109E-02 -.294E-03   0.245E-04 -.284E-04 -.731E-01
   0.540E-03 -.161E-02 -.151E+00   0.267E-02 0.192E-03 0.780E-01   0.190E-02 -.101E-02 -.554E-03   -.219E-04 0.168E-04 0.732E-01
   0.504E-03 0.174E-02 -.151E+00   0.267E-02 -.327E-02 0.780E-01   0.196E-02 -.943E-03 -.459E-03   -.256E-04 0.152E-04 0.732E-01
   -.238E-02 0.974E-04 -.151E+00   0.567E-02 -.154E-02 0.780E-01   0.187E-02 -.103E-02 -.506E-03   -.223E-04 0.173E-04 0.732E-01
   0.365E-02 0.762E-04 -.178E+00   -.546E-03 -.154E-02 0.105E+00   0.198E-02 -.992E-03 -.344E-03   -.249E-04 0.150E-04 0.732E-01
   -.749E-01 -.404E-03 0.432E+00   0.701E-01 -.133E-02 -.338E+00   0.271E-03 -.107E-02 0.102E-01   -.144E-04 -.163E-04 -.915E-01
   0.199E+00 0.722E-02 0.961E+00   -.202E+00 -.986E-02 -.902E+00   0.223E-01 -.780E-03 0.815E-01   -.526E-05 -.158E-04 -.915E-01
   -.302E+00 -.289E+00 0.958E+00   0.347E+00 0.315E+00 -.898E+00   0.145E-01 -.549E-02 0.812E-01   -.157E-04 -.219E-04 -.915E-01
   -.291E+00 0.284E+00 0.965E+00   0.335E+00 -.313E+00 -.907E+00   0.155E-01 0.287E-02 0.818E-01   -.165E-04 -.912E-05 -.915E-01
   0.266E-02 -.295E-03 -.176E+00   0.267E-02 -.152E-02 0.845E-01   0.259E-02 -.110E-02 -.164E-03   0.532E-04 -.591E-05 0.913E-01
   0.269E-02 -.296E-03 -.176E+00   0.265E-02 -.152E-02 0.846E-01   0.259E-02 -.110E-02 -.162E-03   0.523E-04 -.602E-05 0.913E-01
   0.268E-02 -.301E-03 -.176E+00   0.266E-02 -.151E-02 0.846E-01   0.259E-02 -.110E-02 -.163E-03   0.526E-04 -.560E-05 0.913E-01
   0.267E-02 -.288E-03 -.176E+00   0.266E-02 -.152E-02 0.846E-01   0.259E-02 -.110E-02 -.162E-03   0.530E-04 -.636E-05 0.913E-01
   0.994E-02 -.475E-02 -.115E-01   -.124E-01 0.627E-02 0.844E-01   -.174E-02 0.107E-02 0.314E-03   -.475E-04 0.442E-04 -.731E-01
   -.974E-02 -.660E-02 -.176E-01   0.727E-02 0.819E-02 0.908E-01   -.169E-02 0.102E-02 0.156E-03   -.473E-04 0.469E-04 -.731E-01
   0.170E-02 0.114E-01 -.146E-01   -.424E-02 -.983E-02 0.876E-01   -.167E-02 0.999E-03 0.240E-03   -.498E-04 0.440E-04 -.731E-01
   -.126E-02 0.972E-05 -.220E-02   -.114E-02 0.154E-02 0.752E-01   -.176E-02 0.103E-02 0.154E-03   -.453E-04 0.452E-04 -.731E-01
   -.101E-01 0.638E-02 -.164E+00   0.714E-02 -.500E-02 0.906E-01   -.178E-02 0.978E-03 0.107E-03   0.215E-04 -.181E-04 0.732E-01
   0.939E-02 0.458E-02 -.158E+00   -.123E-01 -.313E-02 0.845E-01   -.185E-02 0.930E-03 0.267E-03   0.181E-04 -.164E-04 0.732E-01
   0.121E-02 -.114E-01 -.161E+00   -.420E-02 0.128E-01 0.876E-01   -.177E-02 0.101E-02 0.186E-03   0.182E-04 -.155E-04 0.732E-01
   -.167E-02 -.129E-03 -.149E+00   -.117E-02 0.154E-02 0.753E-01   -.186E-02 0.972E-03 0.110E-03   0.215E-04 -.176E-04 0.732E-01
   -.807E-04 0.441E-04 0.334E-03   0.185E-14 -.332E-13 -.355E-13   0.172E-04 -.305E-04 0.721E-03   0.224E-04 0.424E-07 -.818E-03

 POSITION                                       TOTAL-FORCE (eV/Angst)
      2.47019     -0.00011      1.94318        -0.183046      0.003732     -0.136009
      4.93431     -0.00022      1.93365         0.036796      0.002979     -0.006975
      1.23348      2.13645      1.93365         0.005256     -0.015245     -0.006911
      3.70064      2.13634      1.93365         0.005161      0.021230     -0.007055
      2.46715     -0.00011      9.66825        -0.008155      0.002999      0.000438
      4.93431     -0.00022      9.66825        -0.008152      0.002999      0.000441
      1.23348      2.13645      9.66825        -0.008153      0.002998      0.000441
      3.70064      2.13634      9.66825        -0.008153      0.003000      0.000441
     -1.23367      2.13656      5.80095         0.004348     -0.002798     -0.000478
      1.23348      2.13645      5.80095         0.004322     -0.002843     -0.000486
     -2.46735      4.27313      5.80095         0.004373     -0.002800     -0.000482
     -0.00019      4.27302      5.80095         0.004298     -0.002818     -0.000404
     -1.23367      2.13656     13.53556         0.005091     -0.002411     -0.000641
      1.23348      2.13645     13.53556         0.005111     -0.002455     -0.000634
     -2.46735      4.27313     13.53556         0.005139     -0.002450     -0.000637
     -0.00019      4.27302     13.53556         0.005062     -0.002439     -0.000528
     -0.00019      1.42441      1.93365        -0.004487     -0.002821      0.012104
      2.46696      1.42430      1.93365         0.019543     -0.003428      0.049027
     -1.23387      3.56098      1.93365         0.059742      0.020364      0.049369
      1.23329      3.56086      1.93365         0.059759     -0.026064      0.048646
     -0.00019      1.42441      9.66825         0.007975     -0.002920     -0.000154
      2.46696      1.42430      9.66825         0.007975     -0.002920     -0.000153
     -1.23387      3.56098      9.66825         0.007976     -0.002920     -0.000154
      1.23329      3.56086      9.66825         0.007975     -0.002920     -0.000152
      1.23367      0.71204      5.80095        -0.004274      0.002634      0.000218
      3.70083      0.71193      5.80095        -0.004188      0.002667      0.000231
     -0.00000      2.84860      5.80095        -0.004261      0.002579      0.000229
      2.46715      2.84849      5.80095        -0.004198      0.002626      0.000033
      1.23367      0.71204     13.53556        -0.004678      0.002326      0.000112
      3.70083      0.71193     13.53556        -0.004740      0.002361      0.000101
     -0.00000      2.84860     13.53556        -0.004739      0.002397      0.000105
      2.46715      2.84849     13.53556        -0.004677      0.002362     -0.000083
    total drift:                               -0.000041      0.000014      0.000237

  FREE ENERGIE OF THE ION-ELECTRON SYSTEM (eV)
  free  energy   TOTEN  =      -297.59124358 eV

  energy  without entropy=     -297.59124358  energy(sigma->0) =     -297.59124358

 BZINTS: Fermi energy:  3.509176;128.000000 electrons
         Band energy:-718.524227;  BLOECHL correction: -0.000000