 vasp.5.3.5 31Mar14 (build Nov 02 2014 15:17:37) complex

 executed on        ion-Intel-MKL date 2016.10.20  15:43:26

 INCAR:
 POTCAR:   PAW_PBE C 08Apr2002

 POTCAR:   PAW_PBE C 08Apr2002
   VRHFIN =C: s2p2

   TITEL  = PAW_PBE C 08Apr2002
   POMASS =   12.011; ZVAL   =    4.000    mass and valenz
   ENMAX  =  400.000; ENMIN  =  300.000 eV
   QCUT   =   -5.516; QGAM   =   11.032    optimization parameters

   Description
     l     E      TYP  RCUT    TYP  RCUT
     0   .000     23  1.200
     0   .000     23  1.200
     1   .000     23  1.500
     1  2.500     23  1.500
     2   .000      7  1.500

 PAW_PBE C 08Apr2002                    :

 POSCAR: C
  positions in direct lattice
 exchange correlation table for  LEXCH =        8
   RHO(1)=    0.500       N(1)  =     2000
   RHO(2)=  100.500       N(2)  =     4000

 ion  position               nearest neighbor table
   1  0.499  0.000  0.124-  19 1.42  18 1.42  20 1.43
   2  1.000  0.000  0.125-  17 1.42  20 1.42  19 1.42
   3  0.500  0.500  0.125-  20 1.42  17 1.42  18 1.42
   4  1.000  0.500  0.125-  19 1.42  18 1.42  17 1.42
   5  0.500  0.000  0.625-  22 1.42  23 1.42  24 1.42
   6  1.000  0.000  0.625-  21 1.42  24 1.42  23 1.42
   7  0.500  0.500  0.625-  24 1.42  21 1.42  22 1.42
   8  1.000  0.500  0.625-  23 1.42  22 1.42  21 1.42
   9  0.000  0.500  0.375-  27 1.42  26 1.42  28 1.42
  10  0.500  0.500  0.375-  28 1.42  25 1.42  27 1.42
  11  0.000  1.000  0.375-  25 1.42  28 1.42  26 1.42
  12  0.500  1.000  0.375-  26 1.42  27 1.42  25 1.42
  13  0.000  0.500  0.875-  31 1.42  30 1.42  32 1.42
  14  0.500  0.500  0.875-  32 1.42  29 1.42  31 1.42
  15  0.000  1.000  0.875-  29 1.42  32 1.42  30 1.42
  16  0.500  1.000  0.875-  30 1.42  31 1.42  29 1.42
  17  0.166  0.334  0.125-   2 1.42   3 1.42   4 1.42
  18  0.666  0.334  0.125-   4 1.42   1 1.42   3 1.42
  19  0.166  0.834  0.125-   1 1.42   4 1.42   2 1.42
  20  0.666  0.834  0.125-   3 1.42   2 1.42   1 1.43
  21  0.166  0.334  0.625-   6 1.42   7 1.42   8 1.42
  22  0.666  0.334  0.625-   5 1.42   8 1.42   7 1.42
  23  0.166  0.834  0.625-   8 1.42   5 1.42   6 1.42
  24  0.666  0.834  0.625-   7 1.42   6 1.42   5 1.42
  25  0.334  0.166  0.375-  11 1.42  10 1.42  12 1.42
  26  0.834  0.166  0.375-  12 1.42   9 1.42  11 1.42
  27  0.334  0.666  0.375-   9 1.42  12 1.42  10 1.42
  28  0.834  0.666  0.375-  10 1.42  11 1.42   9 1.42
  29  0.334  0.166  0.875-  15 1.42  14 1.42  16 1.42
  30  0.834  0.166  0.875-  16 1.42  13 1.42  15 1.42
  31  0.334  0.666  0.875-  13 1.42  16 1.42  14 1.42
  32  0.834  0.666  0.875-  14 1.42  15 1.42  13 1.42

  LATTYP: Found a base centered orthorhombic cell.
 ALAT       =     4.9295501972
 B/A-ratio  =     1.7336081796
 C/A-ratio  =     2.8251414374

  Lattice vectors:

 A1 = (   4.9328744980,  -0.0019192860,   0.0000000000)
 A2 = (  -2.4680993993,   4.2710349859,   0.0000000000)
 A3 = (   0.0000000000,   0.0000000000,  13.9266765300)

Analysis of symmetry for initial positions (statically):
 Subroutine PRICEL returns:
 Original cell was already a primitive cell.

 Routine SETGRP: Setting up the symmetry group for a
 base centered orthorhombic supercell.

 Subroutine GETGRP returns: Found  1 space group operations
 (whereof  1 operations were pure point group operations)
 out of a pool of  8 trial point group operations.

The static configuration has the point symmetry C_1 .

Analysis of symmetry for dynamics (positions and initial velocities):
 Subroutine PRICEL returns:
 Original cell was already a primitive cell.

 Routine SETGRP: Setting up the symmetry group for a
 base centered orthorhombic supercell.

 Subroutine GETGRP returns: Found  1 space group operations
 (whereof  1 operations were pure point group operations)
 out of a pool of  8 trial point group operations.

The dynamic configuration has the point symmetry C_1 .

 KPOINTS: B4C B11C-CBC

Automatic generation of k-mesh.
Space group operators:
 irot       det(A)        alpha          n_x          n_y          n_z        tau_x        tau_y        tau_z
    1     1.000000     0.000000     1.000000     0.000000     0.000000     0.000000     0.000000     0.000000

 Subroutine IBZKPT returns following result:

 Found     76 irreducible k-points:

 Following reciprocal coordinates:
            Coordinates               Weight
  0.000000  0.000000  0.000000      1.000000
  0.166667 -0.000000  0.000000      2.000000
  0.333333 -0.000000  0.000000      2.000000
  0.500000 -0.000000  0.000000      1.000000
  0.000000  0.166667  0.000000      2.000000
  0.166667  0.166667  0.000000      2.000000
  0.333333  0.166667  0.000000      2.000000
  0.500000  0.166667  0.000000      2.000000
 -0.333333  0.166667  0.000000      2.000000
 -0.166667  0.166667  0.000000      2.000000
  0.000000  0.333333  0.000000      2.000000
  0.166667  0.333333  0.000000      2.000000
  0.333333  0.333333  0.000000      2.000000
  0.500000  0.333333  0.000000      2.000000
 -0.333333  0.333333  0.000000      2.000000
 -0.166667  0.333333  0.000000      2.000000
  0.000000  0.500000  0.000000      1.000000
  0.166667  0.500000  0.000000      2.000000
  0.333333  0.500000  0.000000      2.000000
  0.500000  0.500000  0.000000      1.000000
  0.000000  0.000000  0.250000      2.000000
  0.166667 -0.000000  0.250000      2.000000
  0.333333 -0.000000  0.250000      2.000000
  0.500000 -0.000000  0.250000      2.000000
 -0.333333  0.000000  0.250000      2.000000
 -0.166667  0.000000  0.250000      2.000000
  0.000000  0.166667  0.250000      2.000000
  0.166667  0.166667  0.250000      2.000000
  0.333333  0.166667  0.250000      2.000000
  0.500000  0.166667  0.250000      2.000000
 -0.333333  0.166667  0.250000      2.000000
 -0.166667  0.166667  0.250000      2.000000
  0.000000  0.333333  0.250000      2.000000
  0.166667  0.333333  0.250000      2.000000
  0.333333  0.333333  0.250000      2.000000
  0.500000  0.333333  0.250000      2.000000
 -0.333333  0.333333  0.250000      2.000000
 -0.166667  0.333333  0.250000      2.000000
  0.000000  0.500000  0.250000      2.000000
  0.166667  0.500000  0.250000      2.000000
  0.333333  0.500000  0.250000      2.000000
  0.500000  0.500000  0.250000      2.000000
 -0.333333  0.500000  0.250000      2.000000
 -0.166667  0.500000  0.250000      2.000000
  0.000000 -0.333333  0.250000      2.000000
  0.166667 -0.333333  0.250000      2.000000
  0.333333 -0.333333  0.250000      2.000000
  0.500000 -0.333333  0.250000      2.000000
 -0.333333 -0.333333  0.250000      2.000000
 -0.166667 -0.333333  0.250000      2.000000
 -0.000000 -0.166667  0.250000      2.000000
  0.166667 -0.166667  0.250000      2.000000
  0.333333 -0.166667  0.250000      2.000000
  0.500000 -0.166667  0.250000      2.000000
 -0.333333 -0.166667  0.250000      2.000000
 -0.166667 -0.166667  0.250000      2.000000
  0.000000  0.000000  0.500000      1.000000
  0.166667 -0.000000  0.500000      2.000000
  0.333333 -0.000000  0.500000      2.000000
  0.500000 -0.000000  0.500000      1.000000
  0.000000  0.166667  0.500000      2.000000
  0.166667  0.166667  0.500000      2.000000
  0.333333  0.166667  0.500000      2.000000
  0.500000  0.166667  0.500000      2.000000
 -0.333333  0.166667  0.500000      2.000000
 -0.166667  0.166667  0.500000      2.000000
  0.000000  0.333333  0.500000      2.000000
  0.166667  0.333333  0.500000      2.000000
  0.333333  0.333333  0.500000      2.000000
  0.500000  0.333333  0.500000      2.000000
 -0.333333  0.333333  0.500000      2.000000
 -0.166667  0.333333  0.500000      2.000000
  0.000000  0.500000  0.500000      1.000000
  0.166667  0.500000  0.500000      2.000000
  0.333333  0.500000  0.500000      2.000000
  0.500000  0.500000  0.500000      1.000000

 Following cartesian coordinates:
            Coordinates               Weight
  0.000000  0.000000  0.000000      1.000000
  0.033795  0.019529  0.000000      2.000000
  0.067589  0.039058  0.000000      2.000000
  0.101384  0.058586  0.000000      1.000000
  0.000015  0.039031  0.000000      2.000000
  0.033810  0.058560  0.000000      2.000000
  0.067604  0.078089  0.000000      2.000000
  0.101399  0.097618  0.000000      2.000000
 -0.067574 -0.000026  0.000000      2.000000
 -0.033779  0.019503  0.000000      2.000000
  0.000030  0.078063  0.000000      2.000000
  0.033825  0.097591  0.000000      2.000000
  0.067619  0.117120  0.000000      2.000000
  0.101414  0.136649  0.000000      2.000000
 -0.067559  0.039005  0.000000      2.000000
 -0.033764  0.058534  0.000000      2.000000
  0.000046  0.117094  0.000000      1.000000
  0.033840  0.136623  0.000000      2.000000
  0.067635  0.156152  0.000000      2.000000
  0.101429  0.175680  0.000000      1.000000
  0.000000  0.000000  0.017951      2.000000
  0.033795  0.019529  0.017951      2.000000
  0.067589  0.039058  0.017951      2.000000
  0.101384  0.058586  0.017951      2.000000
 -0.067589 -0.039058  0.017951      2.000000
 -0.033795 -0.019529  0.017951      2.000000
  0.000015  0.039031  0.017951      2.000000
  0.033810  0.058560  0.017951      2.000000
  0.067604  0.078089  0.017951      2.000000
  0.101399  0.097618  0.017951      2.000000
 -0.067574 -0.000026  0.017951      2.000000
 -0.033779  0.019503  0.017951      2.000000
  0.000030  0.078063  0.017951      2.000000
  0.033825  0.097591  0.017951      2.000000
  0.067619  0.117120  0.017951      2.000000
  0.101414  0.136649  0.017951      2.000000
 -0.067559  0.039005  0.017951      2.000000
 -0.033764  0.058534  0.017951      2.000000
  0.000046  0.117094  0.017951      2.000000
  0.033840  0.136623  0.017951      2.000000
  0.067635  0.156152  0.017951      2.000000
  0.101429  0.175680  0.017951      2.000000
 -0.067543  0.078036  0.017951      2.000000
 -0.033749  0.097565  0.017951      2.000000
 -0.000030 -0.078063  0.017951      2.000000
  0.033764 -0.058534  0.017951      2.000000
  0.067559 -0.039005  0.017951      2.000000
  0.101353 -0.019476  0.017951      2.000000
 -0.067619 -0.117120  0.017951      2.000000
 -0.033825 -0.097591  0.017951      2.000000
 -0.000015 -0.039031  0.017951      2.000000
  0.033779 -0.019503  0.017951      2.000000
  0.067574  0.000026  0.017951      2.000000
  0.101368  0.019555  0.017951      2.000000
 -0.067604 -0.078089  0.017951      2.000000
 -0.033810 -0.058560  0.017951      2.000000
  0.000000  0.000000  0.035902      1.000000
  0.033795  0.019529  0.035902      2.000000
  0.067589  0.039058  0.035902      2.000000
  0.101384  0.058586  0.035902      1.000000
  0.000015  0.039031  0.035902      2.000000
  0.033810  0.058560  0.035902      2.000000
  0.067604  0.078089  0.035902      2.000000
  0.101399  0.097618  0.035902      2.000000
 -0.067574 -0.000026  0.035902      2.000000
 -0.033779  0.019503  0.035902      2.000000
  0.000030  0.078063  0.035902      2.000000
  0.033825  0.097591  0.035902      2.000000
  0.067619  0.117120  0.035902      2.000000
  0.101414  0.136649  0.035902      2.000000
 -0.067559  0.039005  0.035902      2.000000
 -0.033764  0.058534  0.035902      2.000000
  0.000046  0.117094  0.035902      1.000000
  0.033840  0.136623  0.035902      2.000000
  0.067635  0.156152  0.035902      2.000000
[...]

[...]

 eigenvalue-minimisations  :  8796
 total energy-change (2. order) : 0.4901267E-08  ( 0.5338841E-12)
 number of electron     127.9999993 magnetization
 augmentation part        3.0600898 magnetization

 Free energy of the ion-electron system (eV)
  alpha Z        PSCENC =       284.42569248
  Ewald energy   TEWEN  =     -3499.84626010
  -Hartree energ DENC   =     -1599.59569936
  -exchange      EXHF   =         0.00000000
  -V(xc)+E(xc)   XCENC  =       460.89376566
  PAW double counting   =      2222.30443605    -2263.51913545
  entropy T*S    EENTRO =         0.00000000
  eigenvalues    EBANDS =      -608.62796977
  atomic energy  EATOM  =      4708.94155045
  free energy    TOTEN  =      -295.02362004 eV

  energy without entropy =     -295.02362004  energy(sigma->0) =     -295.02362004

 average (electrostatic) potential at core
  the test charge radii are     0.6991
  (the norm of the test charge is              1.0000)
       1 -51.0548       2 -51.0547       3 -51.0531       4 -51.0563       5 -51.0549
       6 -51.0549       7 -51.0549       8 -51.0549       9 -51.0553      10 -51.0553
      11 -51.0553      12 -51.0552      13 -51.0553      14 -51.0552      15 -51.0552
      16 -51.0554      17 -51.0343      18 -51.0344      19 -51.0346      20 -51.0341
      21 -51.0345      22 -51.0345      23 -51.0345      24 -51.0345      25 -51.0344
      26 -51.0344      27 -51.0344      28 -51.0344      29 -51.0343      30 -51.0343
      31 -51.0343      32 -51.0344

 E-fermi :   4.3550     XC(G=0): -10.0483     alpha+bet :-10.9511

 k-point     1 :       0.0000    0.0000    0.0000
  band No.  band energies     occupation
      1     -15.2422      2.00000
      2     -15.1333      2.00000
      3     -15.1330      2.00000
      4     -15.0184      2.00000
      5      -9.9414      2.00000
      6      -9.9308      2.00000
      7      -9.9285      2.00000
      8      -9.8990      2.00000
      9      -9.8974      2.00000
     10      -9.8874      2.00000
     11      -9.8858      2.00000
     12      -9.8858      2.00000
     13      -9.8822      2.00000
     14      -9.8602      2.00000
     15      -9.8480      2.00000
     16      -9.8449      2.00000
     17      -8.8743      2.00000
     18      -8.8730      2.00000
     19      -8.8713      2.00000
     20      -8.8491      2.00000
     21      -8.8485      2.00000
     22      -8.8465      2.00000
     23      -8.8458      2.00000
     24      -8.8457      2.00000
     25      -8.8435      2.00000
     26      -8.8109      2.00000
     27      -8.8103      2.00000
     28      -8.8083      2.00000
     29      -3.9981      2.00000
     30      -3.2608      2.00000
     31      -3.2595      2.00000
     32      -2.3772      2.00000
     33      -2.0486      2.00000
     34      -2.0464      2.00000
     35      -2.0317      2.00000
     36      -2.0289      2.00000
     37      -2.0289      2.00000
     38      -2.0288      2.00000
     39      -2.0251      2.00000
     40      -2.0126      2.00000
     41      -2.0101      2.00000
     42      -2.0096      2.00000
     43      -2.0070      2.00000
     44      -1.9918      2.00000
     45       1.3422      2.00000
     46       1.3475      2.00000
     47       1.3481      2.00000
     48       1.3519      2.00000
     49       1.3596      2.00000
     50       1.3634      2.00000
     51       1.3638      2.00000
     52       1.3689      2.00000
     53       1.6797      2.00000
     54       1.6831      2.00000
     55       1.6847      2.00000
     56       1.9944      2.00000
     57       1.9975      2.00000
     58       2.0044      2.00000
     59       2.0048      2.00000
     60       2.0050      2.00000
[...]
     70       6.0183      0.00000
     71       6.0206      0.00000
     72       6.0208      0.00000
     73       6.0230      0.00000
     74       6.4424      0.00000
     75       6.4492      0.00000
     76       6.4517      0.00000
     77       8.3752      0.00000
     78      10.7313      0.00000
     79      10.7349      0.00000
     80      11.5961      0.00000
     81      11.5999      0.00000
     82      11.6317      0.00000
     83      11.7434      0.00000
     84      11.7457      0.00000

[...]

 k-point    76 :       0.5000    0.5000    0.5000
  band No.  band energies     occupation
      1     -13.7419      2.00000
      2     -13.7393      2.00000
      3     -13.7393      2.00000
      4     -13.7365      2.00000
      5     -13.5983      2.00000
      6     -13.5958      2.00000
      7     -13.5957      2.00000
      8     -13.5927      2.00000
      9     -10.9018      2.00000
     10     -10.9002      2.00000
     11     -10.9002      2.00000
     12     -10.8985      2.00000
     13     -10.7868      2.00000
     14     -10.7852      2.00000
     15     -10.7852      2.00000
     16     -10.7834      2.00000
     17      -6.1671      2.00000
     18      -6.1627      2.00000
     19      -6.1626      2.00000
     20      -6.1625      2.00000
     21      -6.1281      2.00000
     22      -6.1245      2.00000
     23      -6.1244      2.00000
     24      -6.1244      2.00000
     25      -4.5766      2.00000
     26      -4.5766      2.00000
     27      -4.5754      2.00000
     28      -4.5732      2.00000
     29      -4.5482      2.00000
     30      -4.5482      2.00000
     31      -4.5468      2.00000
     32      -4.5436      2.00000
     33      -3.0702      2.00000
     34      -3.0698      2.00000
     35      -3.0698      2.00000
     36      -3.0648      2.00000
     37      -3.0198      2.00000
     38      -3.0195      2.00000
     39      -3.0195      2.00000
     40      -3.0132      2.00000
     41      -2.0353      2.00000
     42      -2.0328      2.00000
     43      -2.0328      2.00000
     44      -2.0306      2.00000
     45      -0.9781      2.00000
     46      -0.9753      2.00000
     47      -0.9752      2.00000
     48      -0.9729      2.00000
     49      -0.6657      2.00000
     50      -0.6556      2.00000
     51      -0.6556      2.00000
     52      -0.6541      2.00000
     53      -0.6376      2.00000
     54      -0.6322      2.00000
     55      -0.6322      2.00000
     56      -0.6304      2.00000
     57       1.2250      2.00000
     58       1.2260      2.00000
     59       1.2261      2.00000
     60       1.2292      2.00000
[...]
     70       7.3408      0.00000
     71       7.3410      0.00000
     72       7.3417      0.00000
     73      10.7607      0.00000
     74      10.7652      0.00000
     75      10.7657      0.00000
     76      10.7698      0.00000
     77      11.4571      0.00000
     78      11.4618      0.00000
     79      11.4622      0.00000
     80      11.4696      0.00000
     81      11.7587      0.00000
     82      11.7604      0.00000
     83      11.7611      0.00000
     84      11.7660      0.00000

 soft charge-density along one line, spin component           1
         0         1         2         3         4         5         6         7         8         9
 total charge-density along one line

------------------------ aborting loop because EDIFF is reached ----------------------------------------

         DFTD3 V3.0 Rev 1
 IVDW         = 12
 DF pbe
 parameters
 VDW_S6       =    1.0000
 VDW_S8       =    0.7875
 VDW_A1       =    0.4289
 VDW_A2       =    4.4407
 k1-k3        =   16.0000    1.3333   -4.0000
 VDW_RADIUS   =   50.2022 A
 VDW_CNRADIUS =   21.1671 A
 Edisp (eV)   -4.78475

 E6    (eV) :    -3.4356
 E8    (eV) :    -1.3492
 % E8        : 28.20

  FORCE on cell =-STRESS in cart. coord.  units (eV):
  Direction    XX          YY          ZZ          XY          YZ          ZX
  Alpha Z   284.42569   284.42569   284.42569
  Ewald     803.43293   802.96112 -5106.25923     0.32169     0.00060    -0.00904
  Hartree  1419.02733  1419.04328 -1238.47491     0.11720     0.00029    -0.00225
  E(xc)    -467.41475  -467.42132  -484.96481    -0.00277     0.00005    -0.00012
  Local   -3837.02184 -3836.67654  4460.65855    -0.40031    -0.00003     0.00753
  n-local  -111.75468  -111.86869  -102.35317    -0.09424     0.00077    -0.00170
  augment   -12.36256   -12.36159   -11.33356    -0.00030    -0.00001     0.00006
  Kinetic  1922.08688  1922.84294  2201.94013     0.52176    -0.01107     0.02521
  Fock        0.00000     0.00000     0.00000     0.00000     0.00000     0.00000
  vdW        -0.79479    -0.78544    -5.76169     0.00776    -0.00000    -0.00001
  Total      -0.37578     0.15946    -2.12299     0.47080    -0.00940     0.01967
  in kB      -2.05238     0.87095   -11.59514     2.57135    -0.05135     0.10744

 VOLUME and BASIS-vectors are now :
  energy-cutoff  :      800.00
  volume of cell :      293.35
      direct lattice vectors                 reciprocal lattice vectors
     4.932874498 -0.001919286  0.000000000     0.202767147  0.117172881  0.000000000
    -2.468099399  4.271034986  0.000000000     0.000091118  0.234187941  0.000000000
     0.000000000  0.000000000 13.926676530     0.000000000  0.000000000  0.071804640

  length of vectors
     4.932874871  4.932874871 13.926676530     0.234187958  0.234187958  0.071804640

 FORCES acting on ions
    electron-ion (+dipol)            ewald-force                    non-local-force                 convergence-correction
   -.852E+00 0.650E-01 0.183E+01   0.949E+00 -.593E-01 -.187E+01   0.847E-01 0.309E-02 0.173E+00   -.106E-06 -.127E-06 -.133E-05
   0.692E-01 0.669E-01 -.391E+00   -.103E+00 -.620E-01 0.373E+00   -.251E-01 0.301E-02 0.215E-01   -.205E-07 -.121E-06 -.116E-05
   -.992E-01 -.304E-01 -.391E+00   0.892E-01 0.493E-01 0.373E+00   -.147E-01 0.890E-02 0.214E-01   -.795E-07 -.154E-06 -.116E-05
   -.997E-01 0.165E+00 -.391E+00   0.895E-01 -.174E+00 0.373E+00   -.147E-01 -.309E-02 0.216E-01   -.642E-07 -.976E-07 -.116E-05
   -.114E+00 0.677E-01 0.929E-01   0.108E+00 -.621E-01 -.934E-01   -.441E-02 0.316E-02 -.281E-02   0.805E-06 -.633E-07 0.150E-05
   -.114E+00 0.677E-01 0.924E-01   0.108E+00 -.621E-01 -.929E-01   -.440E-02 0.316E-02 -.283E-02   0.813E-06 -.786E-07 0.150E-05
   -.114E+00 0.677E-01 0.924E-01   0.108E+00 -.621E-01 -.929E-01   -.441E-02 0.316E-02 -.283E-02   0.823E-06 -.786E-07 0.150E-05
   -.114E+00 0.678E-01 0.924E-01   0.108E+00 -.622E-01 -.929E-01   -.441E-02 0.316E-02 -.283E-02   0.797E-06 -.724E-07 0.150E-05
   0.118E+00 -.668E-01 0.822E-01   -.108E+00 0.588E-01 -.817E-01   0.544E-02 -.378E-02 0.291E-02   0.185E-06 -.949E-07 -.332E-05
   0.117E+00 -.731E-01 0.819E-01   -.108E+00 0.653E-01 -.816E-01   0.554E-02 -.390E-02 0.311E-02   0.191E-06 -.100E-06 -.332E-05
   0.123E+00 -.700E-01 0.820E-01   -.113E+00 0.621E-01 -.816E-01   0.560E-02 -.393E-02 0.301E-02   0.191E-06 -.102E-06 -.332E-05
   0.111E+00 -.700E-01 0.129E+00   -.101E+00 0.622E-01 -.129E+00   0.541E-02 -.387E-02 0.270E-02   0.183E-06 -.101E-06 -.333E-05
   0.117E+00 -.620E-01 0.819E-01   -.108E+00 0.587E-01 -.815E-01   0.530E-02 -.236E-02 0.299E-02   0.237E-06 -.165E-06 0.313E-05
   0.117E+00 -.687E-01 0.820E-01   -.108E+00 0.656E-01 -.815E-01   0.518E-02 -.249E-02 0.278E-02   0.249E-06 -.162E-06 0.314E-05
   0.122E+00 -.653E-01 0.820E-01   -.114E+00 0.621E-01 -.816E-01   0.535E-02 -.234E-02 0.289E-02   0.244E-06 -.147E-06 0.313E-05
   0.110E+00 -.652E-01 0.129E+00   -.101E+00 0.620E-01 -.129E+00   0.516E-02 -.240E-02 0.273E-02   0.244E-06 -.143E-06 0.313E-05
   0.198E+00 -.665E-01 -.328E+00   -.181E+00 0.621E-01 0.326E+00   0.622E-02 -.265E-02 -.990E-02   0.976E-07 0.120E-06 -.116E-05
   -.105E+00 -.596E-01 -.853E+00   0.118E+00 0.544E-01 0.885E+00   -.178E-01 -.230E-02 -.797E-01   0.644E-07 0.110E-06 -.115E-05
   0.437E+00 0.247E+00 -.857E+00   -.474E+00 -.281E+00 0.890E+00   -.110E-01 0.125E-02 -.800E-01   0.766E-07 0.124E-06 -.115E-05
   0.447E+00 -.384E+00 -.849E+00   -.485E+00 0.409E+00 0.880E+00   -.100E-01 -.706E-02 -.794E-01   0.645E-07 0.114E-06 -.115E-05
   0.112E+00 -.667E-01 0.925E-01   -.107E+00 0.620E-01 -.928E-01   0.376E-02 -.275E-02 0.819E-03   -.832E-06 0.850E-07 0.151E-05
   0.112E+00 -.667E-01 0.927E-01   -.107E+00 0.620E-01 -.931E-01   0.377E-02 -.276E-02 0.815E-03   -.832E-06 0.103E-06 0.150E-05
   0.112E+00 -.667E-01 0.927E-01   -.107E+00 0.619E-01 -.931E-01   0.376E-02 -.276E-02 0.814E-03   -.848E-06 0.969E-07 0.151E-05
   0.112E+00 -.668E-01 0.927E-01   -.107E+00 0.620E-01 -.931E-01   0.376E-02 -.275E-02 0.814E-03   -.814E-06 0.980E-07 0.150E-05
   -.133E+00 0.771E-01 0.926E-01   0.124E+00 -.699E-01 -.922E-01   -.506E-02 0.349E-02 -.113E-02   -.188E-06 0.918E-07 -.332E-05
   -.993E-01 0.805E-01 0.104E+00   0.901E-01 -.735E-01 -.104E+00   -.511E-02 0.358E-02 -.848E-03   -.202E-06 0.954E-07 -.333E-05
   -.119E+00 0.497E-01 0.982E-01   0.110E+00 -.424E-01 -.980E-01   -.516E-02 0.357E-02 -.998E-03   -.199E-06 0.107E-06 -.333E-05
   -.114E+00 0.692E-01 0.776E-01   0.105E+00 -.620E-01 -.772E-01   -.498E-02 0.355E-02 -.650E-03   -.192E-06 0.975E-07 -.333E-05
   -.974E-01 0.528E-01 0.104E+00   0.900E-01 -.501E-01 -.104E+00   -.445E-02 0.199E-02 -.933E-03   -.210E-06 0.148E-06 0.313E-05
   -.131E+00 0.565E-01 0.923E-01   0.124E+00 -.540E-01 -.919E-01   -.444E-02 0.208E-02 -.119E-02   -.216E-06 0.145E-06 0.313E-05
   -.118E+00 0.839E-01 0.982E-01   0.110E+00 -.817E-01 -.980E-01   -.452E-02 0.201E-02 -.103E-02   -.207E-06 0.143E-06 0.313E-05
   -.112E+00 0.644E-01 0.775E-01   0.104E+00 -.619E-01 -.771E-01   -.434E-02 0.202E-02 -.699E-03   -.217E-06 0.137E-06 0.313E-05
   -.385E-04 0.113E-04 0.352E-02   -.369E-13 -.288E-13 0.142E-13   0.251E-04 -.111E-04 -.352E-02   0.372E-07 0.839E-08 0.106E-05

 POSITION                                       TOTAL-FORCE (eV/Angst)
      2.46068      0.00044      1.73141         0.182926      0.008774      0.132803
      4.93046     -0.00052      1.74083        -0.060462      0.007908      0.003935
      1.22997      2.13595      1.74083        -0.025059      0.028350      0.004005
      3.69641      2.13499      1.74083        -0.025167     -0.012568      0.003952
      2.46402      0.00044      8.70417        -0.010799      0.008778     -0.003303
      4.93046     -0.00052      8.70417        -0.010821      0.008778     -0.003320
      1.22997      2.13595      8.70417        -0.010813      0.008782     -0.003320
      3.69641      2.13499      8.70417        -0.010813      0.008773     -0.003320
     -1.23163      2.13412      5.22250         0.015292     -0.011761      0.003410
      1.23481      2.13316      5.22250         0.015411     -0.011686      0.003451
     -2.46568      4.26964      5.22250         0.015289     -0.011827      0.003428
      0.00076      4.26868      5.22250         0.015416     -0.011747      0.002968
     -1.23163      2.13412     12.18584         0.014202     -0.005711      0.003381
      1.23481      2.13316     12.18584         0.014077     -0.005644      0.003334
     -2.46568      4.26964     12.18584         0.014083     -0.005557      0.003359
      0.00076      4.26868     12.18584         0.014198     -0.005617      0.003038
     -0.00332      1.42496      1.74083         0.022210     -0.007073     -0.011899
      2.46311      1.42400      1.74083        -0.004225     -0.007549     -0.047553
     -1.23737      3.56047      1.74083        -0.048643     -0.032667     -0.047163
      1.22906      3.55952      1.74083        -0.048222      0.018299     -0.047863
     -0.00332      1.42496      8.70417         0.008896     -0.007573      0.000477
      2.46311      1.42400      8.70417         0.008896     -0.007573      0.000468
     -1.23737      3.56047      8.70417         0.008895     -0.007573      0.000466
      1.22906      3.55952      8.70417         0.008894     -0.007571      0.000466
      1.23571      0.70960      5.22250        -0.013998      0.010748     -0.000759
      3.70215      0.70864      5.22250        -0.014299      0.010677     -0.000783
      0.00166      2.84512      5.22250        -0.014084      0.010962     -0.000780
      2.46810      2.84416      5.22250        -0.014217      0.010799     -0.000272
      1.23571      0.70960     12.18584        -0.011960      0.004671     -0.000814
      3.70215      0.70864     12.18584        -0.011570      0.004595     -0.000762
      0.00166      2.84512     12.18584        -0.011699      0.004285     -0.000758
      2.46810      2.84416     12.18584        -0.011831      0.004518     -0.000271
    total drift:                               -0.000013      0.000000      0.000006

  FREE ENERGIE OF THE ION-ELECTRON SYSTEM (eV)
  free  energy   TOTEN  =      -299.80837014 eV

  energy  without entropy=     -299.80837014  energy(sigma->0) =     -299.80837014

 BZINTS: Fermi energy:  4.354980;128.000000 electrons
         Band energy:-608.627970;  BLOECHL correction: -0.000000