 vasp.5.3.5 31Mar14 (build Nov 02 2014 15:17:37) complex

 executed on        ion-Intel-MKL date 2017.02.15  22:43:50

 INCAR:
 POTCAR:   PAW_PBE C 08Apr2002
 POTCAR:   PAW_PBE C 08Apr2002
   VRHFIN =C: s2p2

   TITEL  = PAW_PBE C 08Apr2002
   POMASS =   12.011; ZVAL   =    4.000    mass and valenz
   ENMAX  =  400.000; ENMIN  =  300.000 eV
   QCUT   =   -5.516; QGAM   =   11.032    optimization parameters

   Description
     l     E      TYP  RCUT    TYP  RCUT
     0   .000     23  1.200
     0   .000     23  1.200
     1   .000     23  1.500
     1  2.500     23  1.500
     2   .000      7  1.500

 PAW_PBE C 08Apr2002                    :

 POSCAR: C
  positions in direct lattice
 exchange correlation table for  LEXCH =        8
   RHO(1)=    0.500       N(1)  =     2000
   RHO(2)=  100.500       N(2)  =     4000

 ion  position               nearest neighbor table
   1  0.002  0.000  0.000-   9 1.54  11 1.55  13 1.55  10 1.56
   2  0.500  0.000  0.000-  10 1.55  12 1.55   9 1.55  14 1.55
   3  0.000  0.500  0.000-  11 1.55   9 1.55  12 1.55  15 1.55
   4  0.500  0.500  0.000-  12 1.55  10 1.55  11 1.55  16 1.55
   5  0.000  0.000  0.500-  13 1.55  15 1.55  14 1.55   9 1.55
   6  0.500  0.000  0.500-  14 1.55  16 1.55  13 1.55  10 1.55
   7  0.000  0.500  0.500-  15 1.55  13 1.55  16 1.55  11 1.55
   8  0.500  0.500  0.500-  16 1.55  14 1.55  15 1.55  12 1.55
   9  0.125  0.125  0.125-   1 1.54   3 1.55   2 1.55   5 1.55
  10  0.625  0.125  0.125-   2 1.55   4 1.55   6 1.55   1 1.56
  11  0.125  0.625  0.125-   3 1.55   4 1.55   7 1.55   1 1.55
  12  0.625  0.625  0.125-   4 1.55   2 1.55   3 1.55   8 1.55
  13  0.125  0.125  0.625-   5 1.55   7 1.55   6 1.55   1 1.55
  14  0.625  0.125  0.625-   6 1.55   8 1.55   5 1.55   2 1.55
  15  0.125  0.625  0.625-   7 1.55   5 1.55   8 1.55   3 1.55
  16  0.625  0.625  0.625-   8 1.55   6 1.55   7 1.55   4 1.55

  LATTYP: Found a face centered cubic cell.
 ALAT       =     7.1446214731

  Lattice vectors:

 A1 = (   5.0520102928,   0.0000000000,   0.0000000000)
 A2 = (   2.5260051463,   4.3751692538,   0.0000000000)
 A3 = (   2.5260051463,   1.4583897512,   4.1249491307)

Analysis of symmetry for initial positions (statically):
 Subroutine PRICEL returns:
 Original cell was already a primitive cell.

 Routine SETGRP: Setting up the symmetry group for a
 face centered cubic supercell.

 Subroutine GETGRP returns: Found  2 space group operations
 (whereof  2 operations were pure point group operations)
 out of a pool of 48 trial point group operations.

The static configuration has the point symmetry C_1h.

Analysis of symmetry for dynamics (positions and initial velocities):
 Subroutine PRICEL returns:
 Original cell was already a primitive cell.

 Routine SETGRP: Setting up the symmetry group for a
 face centered cubic supercell.

 Subroutine GETGRP returns: Found  2 space group operations
 (whereof  2 operations were pure point group operations)
 out of a pool of 48 trial point group operations.

The dynamic configuration has the point symmetry C_1h.

 KPOINTS: B4C B11C-CBC

Automatic generation of k-mesh.
Space group operators:
 irot       det(A)        alpha          n_x          n_y          n_z        tau_x        tau_y        tau_z
    1     1.000000     0.000000     1.000000     0.000000     0.000000     0.000000     0.000000     0.000000
    2    -1.000000   180.000000     0.000000    -0.577350     0.816497     0.000000     0.000000     0.000000

 Subroutine IBZKPT returns following result:

 Found     72 irreducible k-points:

 Following reciprocal coordinates:
            Coordinates               Weight
  0.000000  0.000000  0.000000      1.000000
  0.166667  0.000000  0.000000      2.000000
  0.333333  0.000000  0.000000      2.000000
  0.500000  0.000000  0.000000      1.000000
  0.000000  0.166667 -0.000000      2.000000
  0.166667  0.166667  0.000000      2.000000
  0.333333  0.166667  0.000000      2.000000
  0.500000  0.166667 -0.000000      2.000000
 -0.333333  0.166667 -0.000000      2.000000
 -0.166667  0.166667 -0.000000      2.000000
  0.000000  0.333333  0.000000      2.000000
  0.166667  0.333333  0.000000      2.000000
  0.333333  0.333333  0.000000      2.000000
  0.500000  0.333333  0.000000      2.000000
 -0.333333  0.333333 -0.000000      2.000000
 -0.166667  0.333333 -0.000000      2.000000
  0.000000  0.500000 -0.000000      2.000000
  0.166667  0.500000 -0.000000      4.000000
  0.333333  0.500000  0.000000      4.000000
  0.500000  0.500000  0.000000      2.000000
  0.000000  0.000000  0.250000      2.000000
  0.166667  0.000000  0.250000      2.000000
  0.333333  0.000000  0.250000      2.000000
  0.500000  0.000000  0.250000      2.000000
 -0.333333  0.000000  0.250000      2.000000
 -0.166667  0.000000  0.250000      2.000000
  0.000000  0.166667  0.250000      2.000000
  0.166667  0.166667  0.250000      2.000000
  0.333333  0.166667  0.250000      2.000000
  0.500000  0.166667  0.250000      2.000000
 -0.333333  0.166667  0.250000      2.000000
 -0.166667  0.166667  0.250000      2.000000
  0.000000  0.333333  0.250000      2.000000
  0.166667  0.333333  0.250000      2.000000
  0.333333  0.333333  0.250000      2.000000
  0.500000  0.333333  0.250000      2.000000
 -0.333333  0.333333  0.250000      2.000000
 -0.166667  0.333333  0.250000      2.000000
  0.000000  0.500000  0.250000      2.000000
  0.166667  0.500000  0.250000      2.000000
  0.333333  0.500000  0.250000      2.000000
  0.500000  0.500000  0.250000      2.000000
 -0.333333  0.500000  0.250000      2.000000
 -0.166667  0.500000  0.250000      2.000000
  0.000000 -0.333333  0.250000      2.000000
  0.166667 -0.333333  0.250000      2.000000
  0.333333 -0.333333  0.250000      2.000000
  0.500000 -0.333333  0.250000      2.000000
 -0.333333 -0.333333  0.250000      2.000000
 -0.166667 -0.333333  0.250000      2.000000
  0.000000 -0.166667  0.250000      2.000000
  0.166667 -0.166667  0.250000      2.000000
  0.333333 -0.166667  0.250000      2.000000
  0.500000 -0.166667  0.250000      2.000000
 -0.333333 -0.166667  0.250000      2.000000
 -0.166667 -0.166667  0.250000      2.000000
  0.000000  0.166667  0.500000      2.000000
  0.166667  0.166667  0.500000      2.000000
  0.333333  0.166667  0.500000      2.000000
  0.500000  0.166667  0.500000      2.000000
 -0.333333  0.166667  0.500000      2.000000
 -0.166667  0.166667  0.500000      2.000000
  0.000000  0.333333  0.500000      2.000000
  0.166667  0.333333  0.500000      2.000000
  0.333333  0.333333  0.500000      2.000000
  0.500000  0.333333  0.500000      2.000000
 -0.333333  0.333333  0.500000      2.000000
 -0.166667  0.333333  0.500000      2.000000
  0.000000  0.500000  0.500000      1.000000
  0.166667  0.500000  0.500000      2.000000
  0.333333  0.500000  0.500000      2.000000
  0.500000  0.500000  0.500000      1.000000

 Following cartesian coordinates:
            Coordinates               Weight
  0.000000  0.000000  0.000000      1.000000
  0.032990 -0.019047 -0.013468      2.000000
  0.065980 -0.038094 -0.026936      2.000000
  0.098971 -0.057141 -0.040405      1.000000
  0.000000  0.038094 -0.013468      2.000000
  0.032990  0.019047 -0.026936      2.000000
  0.065980  0.000000 -0.040405      2.000000
  0.098971 -0.019047 -0.053873      2.000000
 -0.065980  0.076188  0.013468      2.000000
 -0.032990  0.057141  0.000000      2.000000
  0.000000  0.076188 -0.026936      2.000000
  0.032990  0.057141 -0.040405      2.000000
  0.065980  0.038094 -0.053873      2.000000
  0.098971  0.019047 -0.067341      2.000000
 -0.065980  0.114281  0.000000      2.000000
 -0.032990  0.095234 -0.013468      2.000000
  0.000000  0.114281 -0.040405      2.000000
  0.032990  0.095234 -0.053873      4.000000
  0.065980  0.076188 -0.067341      4.000000
  0.098971  0.057141 -0.080809      2.000000
  0.000000  0.000000  0.060607      2.000000
  0.032990 -0.019047  0.047139      2.000000
  0.065980 -0.038094  0.033670      2.000000
  0.098971 -0.057141  0.020202      2.000000
 -0.065980  0.038094  0.087543      2.000000
 -0.032990  0.019047  0.074075      2.000000
  0.000000  0.038094  0.047139      2.000000
  0.032990  0.019047  0.033670      2.000000
  0.065980  0.000000  0.020202      2.000000
  0.098971 -0.019047  0.006734      2.000000
 -0.065980  0.076188  0.074075      2.000000
 -0.032990  0.057141  0.060607      2.000000
  0.000000  0.076188  0.033670      2.000000
  0.032990  0.057141  0.020202      2.000000
  0.065980  0.038094  0.006734      2.000000
  0.098971  0.019047 -0.006734      2.000000
 -0.065980  0.114281  0.060607      2.000000
 -0.032990  0.095234  0.047139      2.000000
  0.000000  0.114281  0.020202      2.000000
  0.032990  0.095234  0.006734      2.000000
  0.065980  0.076188 -0.006734      2.000000
  0.098971  0.057141 -0.020202      2.000000
 -0.065980  0.152375  0.047139      2.000000
 -0.032990  0.133328  0.033670      2.000000
  0.000000 -0.076188  0.087543      2.000000
  0.032990 -0.095234  0.074075      2.000000
  0.065980 -0.114281  0.060607      2.000000
  0.098971 -0.133328  0.047139      2.000000
 -0.065980 -0.038094  0.114480      2.000000
 -0.032990 -0.057141  0.101011      2.000000
  0.000000 -0.038094  0.074075      2.000000
  0.032990 -0.057141  0.060607      2.000000
  0.065980 -0.076188  0.047139      2.000000
  0.098971 -0.095234  0.033670      2.000000
 -0.065980 -0.000000  0.101011      2.000000
 -0.032990 -0.019047  0.087543      2.000000
  0.000000  0.038094  0.107745      2.000000
  0.032990  0.019047  0.094277      2.000000
  0.065980  0.000000  0.080809      2.000000
  0.098971 -0.019047  0.067341      2.000000
 -0.065980  0.076188  0.134682      2.000000
 -0.032990  0.057141  0.121214      2.000000
  0.000000  0.076188  0.094277      2.000000
  0.032990  0.057141  0.080809      2.000000
  0.065980  0.038094  0.067341      2.000000
  0.098971  0.019047  0.053873      2.000000
 -0.065980  0.114281  0.121214      2.000000
 -0.032990  0.095234  0.107745      2.000000
  0.000000  0.114281  0.080809      1.000000
  0.032990  0.095234  0.067341      2.000000
  0.065980  0.076188  0.053873      2.000000
  0.098971  0.057141  0.040405      1.000000

 TETIRR: Found    432 inequivalent tetrahedra from      864

 I would recommend the setting:
   dimension x,y,z NGX =    47 NGY =   47 NGZ =   47
 SYSTEM =  diamond
 POSCAR =  C

 Startparameter for this run:
   NWRITE =      2    write-flag & timer
   PREC   = accura    normal or accurate (medium, high low for compatibility)
   ISTART =      0    job   : 0-new  1-cont  2-samecut
   ICHARG =      2    charge: 1-file 2-atom 10-const
   ISPIN  =      1    spin polarized calculation?
   LNONCOLLINEAR =      F non collinear calculations
   LSORBIT =      F    spin-orbit coupling
   INIWAV =      1    electr: 0-lowe 1-rand  2-diag
   LASPH  =      F    aspherical Exc in radial PAW
   METAGGA=      F    non-selfconsistent MetaGGA calc.

 Electronic Relaxation 1
   ENCUT  =  800.0 eV  58.80 Ry    7.67 a.u.  11.65 11.65 11.65*2*pi/ulx,y,z
   ENINI  =  800.0     initial cutoff
   ENAUG  =  644.9 eV  augmentation charge cutoff
   NELM   =    200;   NELMIN=  2; NELMDL=  0     # of ELM steps
[...]
 k-point 24 :   0.5000 0.0000 0.2500  plane waves:    4682
 k-point 25 :  -0.3333 0.0000 0.2500  plane waves:    4675
 k-point 26 :  -0.1667 0.0000 0.2500  plane waves:    4694
 k-point 27 :   0.0000 0.1667 0.2500  plane waves:    4690
 k-point 28 :   0.1667 0.1667 0.2500  plane waves:    4714
 k-point 29 :   0.3333 0.1667 0.2500  plane waves:    4694
 k-point 30 :   0.5000 0.1667 0.2500  plane waves:    4681
 k-point 31 :  -0.3333 0.1667 0.2500  plane waves:    4682
 k-point 32 :  -0.1667 0.1667 0.2500  plane waves:    4693
 k-point 33 :   0.0000 0.3333 0.2500  plane waves:    4680
 k-point 34 :   0.1667 0.3333 0.2500  plane waves:    4694
 k-point 35 :   0.3333 0.3333 0.2500  plane waves:    4685
 k-point 36 :   0.5000 0.3333 0.2500  plane waves:    4681
 k-point 37 :  -0.3333 0.3333 0.2500  plane waves:    4679
 k-point 38 :  -0.1667 0.3333 0.2500  plane waves:    4681
 k-point 39 :   0.0000 0.5000 0.2500  plane waves:    4682
 k-point 40 :   0.1667 0.5000 0.2500  plane waves:    4681
 k-point 41 :   0.3333 0.5000 0.2500  plane waves:    4681
 k-point 42 :   0.5000 0.5000 0.2500  plane waves:    4682
 k-point 43 :  -0.3333 0.5000 0.2500  plane waves:    4679
 k-point 44 :  -0.1667 0.5000 0.2500  plane waves:    4679
 k-point 45 :   0.0000-0.3333 0.2500  plane waves:    4675
 k-point 46 :   0.1667-0.3333 0.2500  plane waves:    4682
 k-point 47 :   0.3333-0.3333 0.2500  plane waves:    4679
 k-point 48 :   0.5000-0.3333 0.2500  plane waves:    4679
 k-point 49 :  -0.3333-0.3333 0.2500  plane waves:    4681
 k-point 50 :  -0.1667-0.3333 0.2500  plane waves:    4674
 k-point 51 :   0.0000-0.1667 0.2500  plane waves:    4694
 k-point 52 :   0.1667-0.1667 0.2500  plane waves:    4693
 k-point 53 :   0.3333-0.1667 0.2500  plane waves:    4681
 k-point 54 :   0.5000-0.1667 0.2500  plane waves:    4679
 k-point 55 :  -0.3333-0.1667 0.2500  plane waves:    4674
 k-point 56 :  -0.1667-0.1667 0.2500  plane waves:    4684
 k-point 57 :   0.0000 0.1667 0.5000  plane waves:    4678
 k-point 58 :   0.1667 0.1667 0.5000  plane waves:    4682
 k-point 59 :   0.3333 0.1667 0.5000  plane waves:    4687
 k-point 60 :   0.5000 0.1667 0.5000  plane waves:    4696
 k-point 61 :  -0.3333 0.1667 0.5000  plane waves:    4670
 k-point 62 :  -0.1667 0.1667 0.5000  plane waves:    4666
 k-point 63 :   0.0000 0.3333 0.5000  plane waves:    4696
 k-point 64 :   0.1667 0.3333 0.5000  plane waves:    4687
 k-point 65 :   0.3333 0.3333 0.5000  plane waves:    4682
 k-point 66 :   0.5000 0.3333 0.5000  plane waves:    4678
 k-point 67 :  -0.3333 0.3333 0.5000  plane waves:    4666
 k-point 68 :  -0.1667 0.3333 0.5000  plane waves:    4670
 k-point 69 :   0.0000 0.5000 0.5000  plane waves:    4720
 k-point 70 :   0.1667 0.5000 0.5000  plane waves:    4696
 k-point 71 :   0.3333 0.5000 0.5000  plane waves:    4678
 k-point 72 :   0.5000 0.5000 0.5000  plane waves:    4664

 maximum and minimum number of plane-waves per node :      4720     4645

 maximum number of plane-waves:      4720
 maximum index in each direction:
   IXMAX=   11   IYMAX=   11   IZMAX=   11
   IXMIN=  -12   IYMIN=  -12   IZMIN=  -12

 NGX is ok and might be reduce to  48
 NGY is ok and might be reduce to  48
 NGZ is ok and might be reduce to  48

 serial   3D FFT for wavefunctions
 parallel 3D FFT for charge:
    minimum data exchange during FFTs selected (reduces bandwidth)

 Broyden mixing: mesh for mixing (old mesh)
   NGX = 23   NGY = 23   NGZ = 23
  (NGX  = 96   NGY  = 96   NGZ  = 96)
  gives a total of  12167 points

 initial charge density was supplied:
 charge density of overlapping atoms calculated
 number of electron      64.0000000 magnetization
 keeping initial charge density in first step

 Maximum index for augmentation-charges        13901 (set IRDMAX)

 First call to EWALD:  gamma=   0.394
 Maximum number of real-space cells 3x 3x 3
 Maximum number of reciprocal cells 3x 3x 3

 FEWALD executed in parallel

----------------------------------------- Iteration    1(   1)  ---------------------------------------

 BZINTS: Fermi energy: 23.811709; 64.000000 electrons
         Band energy: 410.906497;  BLOECHL correction: -0.205941

 eigenvalue-minimisations  :  5904
 total energy-change (2. order) : 0.2831764E+03  (-0.4533834E+04)
 number of electron      64.0000000 magnetization
 augmentation part       64.0000000 magnetization

 Free energy of the ion-electron system (eV)
  alpha Z        PSCENC =       228.77795706
  Ewald energy   TEWEN  =     -2779.36962599
  -Hartree energ DENC   =      -141.73387144
  -exchange      EXHF   =         0.00000000
  -V(xc)+E(xc)   XCENC  =       228.53238826
  PAW double counting   =       605.30308954     -623.71076428
  entropy T*S    EENTRO =         0.00000000
  eigenvalues    EBANDS =       410.90649688
  atomic energy  EATOM  =      2354.47077523
  free energy    TOTEN  =       283.17644525 eV

  energy without entropy =      283.17644525  energy(sigma->0) =      283.17644525

[...]

 eigenvalue-minimisations  :  7599
 total energy-change (2. order) :-0.4157571E+03  (-0.3966355E+03)
 number of electron      64.0000000 magnetization
 augmentation part       64.0000000 magnetization

[...]

 Broyden mixing:
  rms(total) = 0.13417E+01    rms(broyden)= 0.13417E+01
  rms(prec ) = 0.28279E+01
  weight for this iteration     100.00

[...]

 eigenvalues of (default mixing * dielectric matrix)
  average eigenvalue GAMMA=   2.1608
  2.1608

[...]

 eigenvalue-minimisations  :  7166
 total energy-change (2. order) : 0.1267535E-06  (-0.4984167E-07)
 number of electron      64.0000003 magnetization
 augmentation part        1.5082201 magnetization

[...]

 Broyden mixing:
  rms(total) = 0.27721E-04    rms(broyden)= 0.27720E-04
  rms(prec ) = 0.48675E-04
  weight for this iteration     100.00

 eigenvalues of (default mixing * dielectric matrix)
  average eigenvalue GAMMA=   1.7966
  2.9584  2.5779  2.3776  2.0092  0.9817  0.9817  1.2431  1.2431

[...]

----------------------------------------- Iteration    1(  14)  ---------------------------------------

[...]

 eigenvalue-minimisations  :  4832
 total energy-change (2. order) :-0.8726602E-09  (-0.6353998E-09)
 number of electron      64.0000003 magnetization
 augmentation part        1.5082144 magnetization

 Free energy of the ion-electron system (eV)
  alpha Z        PSCENC =       228.77795706
  Ewald energy   TEWEN  =     -2779.36962599
  -Hartree energ DENC   =      -211.73911827
  -exchange      EXHF   =         0.00000000
  -V(xc)+E(xc)   XCENC  =       235.13319485
  PAW double counting   =      1042.68187351    -1062.99761911
  entropy T*S    EENTRO =         0.00000000
  eigenvalues    EBANDS =        47.50022267
  atomic energy  EATOM  =      2354.47077523
  free energy    TOTEN  =      -145.54234005 eV

  energy without entropy =     -145.54234005  energy(sigma->0) =     -145.54234005

 average (electrostatic) potential at core
  the test charge radii are     0.6991
  (the norm of the test charge is              1.0000)
       1 -45.4292       2 -45.4291       3 -45.4348       4 -45.4234       5 -45.4348
       6 -45.4234       7 -45.4291       8 -45.4291       9 -45.4366      10 -45.4215
      11 -45.4291      12 -45.4291      13 -45.4291      14 -45.4291      15 -45.4316
      16 -45.4266

 E-fermi :   9.7672     XC(G=0): -13.1999     alpha+bet :-17.6170

 k-point     1 :       0.0000    0.0000    0.0000
  band No.  band energies     occupation
      1     -11.7250      2.00000
      2      -5.9897      2.00000
      3      -5.9776      2.00000
      4      -5.9776      2.00000
      5      -5.9661      2.00000
      6      -3.6446      2.00000
      7      -3.6337      2.00000
      8      -3.6336      2.00000
      9      -3.6232      2.00000
     10      -3.0622      2.00000
     11      -3.0482      2.00000
     12      -3.0434      2.00000
     13      -3.0433      2.00000
     14      -3.0385      2.00000
     15      -3.0237      2.00000
     16       3.4058      2.00000
     17       3.4162      2.00000
     18       3.4170      2.00000
     19       3.4170      2.00000
     20       3.4177      2.00000
     21       3.4281      2.00000
     22       6.8668      2.00000
     23       6.8896      2.00000
     24       6.8970      2.00000
     25       6.8976      2.00000
     26       6.9001      2.00000
     27       6.9007      2.00000
     28       6.9083      2.00000
     29       6.9308      2.00000
     30       9.6685      2.00000
     31       9.6874      2.00000
     32       9.7067      2.00000
     33      14.4167      0.00000
     34      14.4287      0.00000
     35      14.4374      0.00000
     36      14.4376      0.00000
     37      14.4459      0.00000
     38      14.4568      0.00000
     39      15.2476      0.00000
     40      15.2644      0.00000
     41      15.2815      0.00000

[...]

 k-point    72 :       0.5000    0.5000    0.5000
  band No.  band energies     occupation
      1     -10.0240      2.00000
      2     -10.0079      2.00000
      3      -5.7456      2.00000
      4      -5.7296      2.00000
      5      -5.7278      2.00000
      6      -5.7249      2.00000
      7      -5.7237      2.00000
      8      -5.7097      2.00000
      9      -1.0716      2.00000
     10      -1.0666      2.00000
     11      -1.0660      2.00000
     12      -1.0618      2.00000
     13      -1.0591      2.00000
     14      -1.0413      2.00000
     15       2.9275      2.00000
     16       2.9626      2.00000
     17       2.9678      2.00000
     18       2.9730      2.00000
     19       2.9732      2.00000
     20       2.9758      2.00000
     21       3.1069      2.00000
     22       3.1212      2.00000
     23       4.8247      2.00000
     24       4.8259      2.00000
     25       4.8304      2.00000
     26       4.8365      2.00000
     27       4.8448      2.00000
     28       4.8610      2.00000
     29       7.9425      2.00000
     30       7.9433      2.00000
     31       7.9493      2.00000
     32       7.9777      2.00000
     33      15.7446      0.00000
     34      15.7489      0.00000
     35      15.7497      0.00000
     36      15.7516      0.00000
     37      15.7690      0.00000
     38      15.7757      0.00000
     39      17.4369      0.00000
     40      17.4529      0.00000
     41      17.4719      0.00000

 soft charge-density along one line, spin component           1
         0         1         2         3         4         5         6         7         8         9
 total charge-density along one line

------------------------ aborting loop because EDIFF is reached ----------------------------------------

         DFTD3 V3.0 Rev 1
 IVDW         = 12
 DF pbe
 parameters
 VDW_S6       =    1.0000
 VDW_S8       =    0.7875
 VDW_A1       =    0.4289
 VDW_A2       =    4.4407
 k1-k3        =   16.0000    1.3333   -4.0000
 VDW_RADIUS   =   50.2022 A
 VDW_CNRADIUS =   21.1671 A
 Edisp (eV)   -3.04657

 E6    (eV) :    -2.1694
 E8    (eV) :    -0.8772
 % E8        : 28.79

  FORCE on cell =-STRESS in cart. coord.  units (eV):
  Direction    XX          YY          ZZ          XY          YZ          ZX
  Alpha Z   228.77796   228.77796   228.77796
  Ewald    -926.45934  -926.45594  -926.46330     1.48256     0.01034     1.04833
  Hartree    70.57796    70.58081    70.57985     0.23000     0.00136     0.16264
  E(xc)    -239.19031  -239.19034  -239.19035     0.00492     0.00002     0.00348
  Local     -92.48058   -92.49355   -92.48441    -1.48792    -0.01289    -1.05212
  n-local   -56.43561   -56.25348   -56.61888     0.09054    -0.06567    -0.09749
  augment    -5.70243    -5.70237    -5.70239    -0.00118     0.00002    -0.00084
  Kinetic  1020.80094  1019.32872  1022.28456    -1.01660     0.52908     0.98263
  Fock        0.00000     0.00000     0.00000     0.00000     0.00000     0.00000
  vdW        -3.03289    -3.03289    -3.03289    -0.00012    -0.00000    -0.00008
  Total      -3.14431    -3.14415    -3.14678     0.02815     0.00372     0.01991
  in kB     -55.25336   -55.25046   -55.29672     0.49466     0.06542     0.34978

 VOLUME and BASIS-vectors are now :
  energy-cutoff  :      800.00
  volume of cell :       91.18
      direct lattice vectors                 reciprocal lattice vectors
     5.052010293  0.000000000  0.000000000     0.197941006 -0.114281293 -0.080809077
     2.526005146  4.375169254  0.000000000     0.000000000  0.228562586 -0.080809077
     2.526005146  1.458389751  4.124949131     0.000000000  0.000000000  0.242427232

  length of vectors
     5.052010293  5.052010293  5.052010293     0.242427232  0.242427232  0.242427232

 FORCES acting on ions
    electron-ion (+dipol)            ewald-force                    non-local-force                 convergence-correction
   0.137E+01 0.145E-01 0.103E-01   -.159E+01 -.177E-01 -.126E-01   -.223E+00 -.784E-03 -.555E-03   0.512E-04 0.732E-05 0.517E-05
   -.543E+00 0.193E-03 0.136E-03   0.581E+00 -.928E-06 -.261E-05   0.281E-01 -.175E-03 -.124E-03   -.565E-04 0.219E-05 0.155E-05
   -.618E-01 -.278E+00 -.275E-01   0.511E-01 0.306E+00 0.150E-01   0.128E-01 0.884E-02 0.103E-02   0.136E-05 -.388E-04 0.212E-04
   -.619E-01 0.278E+00 0.275E-01   0.511E-01 -.306E+00 -.151E-01   0.129E-01 -.883E-02 -.110E-02   0.484E-05 0.297E-04 -.181E-04
   -.618E-01 -.118E+00 -.253E+00   0.511E-01 0.116E+00 0.283E+00   0.128E-01 0.392E-02 0.799E-02   0.136E-05 0.708E-05 -.436E-04
   -.619E-01 0.118E+00 0.253E+00   0.511E-01 -.116E+00 -.283E+00   0.129E-01 -.398E-02 -.795E-02   0.484E-05 -.711E-05 0.341E-04
   0.143E+00 -.941E-04 -.665E-04   -.150E+00 -.928E-06 -.261E-05   0.597E-02 0.392E-04 0.277E-04   -.107E-04 0.155E-05 0.110E-05
   -.993E-01 0.877E-06 0.668E-06   0.106E+00 -.928E-06 -.261E-05   -.223E-02 0.128E-04 0.904E-05   0.731E-05 0.750E-06 0.530E-06
   -.623E+00 -.672E+00 -.475E+00   0.729E+00 0.725E+00 0.513E+00   0.187E-01 -.202E-01 -.143E-01   -.216E-05 -.744E-05 -.526E-05
   -.622E+00 0.662E+00 0.468E+00   0.726E+00 -.712E+00 -.503E+00   0.158E-01 0.209E-01 0.148E-01   0.638E-05 0.136E-04 0.958E-05
   0.533E+00 -.565E-02 0.211E-02   -.516E+00 0.581E-02 -.185E-02   0.529E-01 0.210E-03 -.129E-03   0.204E-04 -.176E-05 0.103E-05
   -.201E+00 0.141E-02 -.242E-03   0.191E+00 -.148E-02 0.280E-03   0.334E-02 0.310E-05 -.412E-05   -.261E-04 -.406E-05 -.945E-06
   0.533E+00 0.104E-03 -.602E-02   -.516E+00 0.196E-03 0.610E-02   0.529E-01 -.515E-04 0.241E-03   0.204E-04 0.382E-06 -.200E-05
   -.201E+00 0.238E-03 0.142E-02   0.191E+00 -.231E-03 -.149E-02   0.334E-02 -.285E-05 0.430E-05   -.261E-04 -.224E-05 -.351E-05
   -.193E-01 -.105E+00 -.739E-01   0.202E-01 0.984E-01 0.696E-01   -.343E-02 0.392E-02 0.277E-02   0.120E-05 -.159E-04 -.112E-04
   -.200E-01 0.105E+00 0.740E-01   0.210E-01 -.985E-01 -.696E-01   -.349E-02 -.393E-02 -.278E-02   0.280E-05 0.150E-04 0.106E-04
   0.723E-05 0.562E-04 0.860E-04   -.102E-13 -.171E-14 0.125E-15   -.239E-04 -.782E-04 -.553E-04   0.573E-06 0.262E-06 0.185E-06

 POSITION                                       TOTAL-FORCE (eV/Angst)
      0.01000      0.00000      0.00000        -0.444127     -0.004004     -0.002831
      2.52601      0.00000      0.00000         0.066244      0.000018      0.000013
      1.26300      2.18758      0.00000         0.002030      0.036996     -0.011426
      3.78901      2.18758      0.00000         0.002086     -0.037112      0.011329
      1.26300      0.72919      2.06247         0.002030      0.001559      0.038689
      3.78901      0.72919      2.06247         0.002086     -0.001689     -0.038766
      2.52601      2.91678      2.06247        -0.000758     -0.000055     -0.000039
      5.05201      2.91678      2.06247         0.004308      0.000013      0.000009
      1.26300      0.72919      0.51562         0.125195      0.032431      0.022932
      3.78901      0.72919      0.51562         0.119532     -0.028712     -0.020302
      2.52601      2.91678      0.51562         0.069472      0.000378      0.000134
      5.05201      2.91678      0.51562        -0.006295     -0.000064      0.000028
      2.52601      1.45839      2.57809         0.069472      0.000252      0.000311
      5.05201      1.45839      2.57809        -0.006295      0.000005     -0.000070
      3.78901      3.64597      2.57809        -0.002504     -0.002206     -0.001560
      6.31501      3.64597      2.57809        -0.002477      0.002191      0.001549
    total drift:                               -0.000016     -0.000022      0.000031

  FREE ENERGIE OF THE ION-ELECTRON SYSTEM (eV)
  free  energy   TOTEN  =      -148.58890594 eV

  energy  without entropy=     -148.58890594  energy(sigma->0) =     -148.58890594

 BZINTS: Fermi energy:  9.767167; 64.000000 electrons
         Band energy:  47.500223;  BLOECHL correction:  0.000000