 vasp.5.3.5 31Mar14 (build Nov 02 2014 15:17:37) complex

 executed on        ion-Intel-MKL date 2016.08.13  12:54:24

 INCAR:
 POTCAR:   PAW_PBE C 08Apr2002
 POTCAR:   PAW_PBE C 08Apr2002
   VRHFIN =C: s2p2

   TITEL  = PAW_PBE C 08Apr2002
   POMASS =   12.011; ZVAL   =    4.000    mass and valenz
   ENMAX  =  400.000; ENMIN  =  300.000 eV
   QCUT   =   -5.516; QGAM   =   11.032    optimization parameters

   Description
     l     E      TYP  RCUT    TYP  RCUT
     0   .000     23  1.200
     0   .000     23  1.200
     1   .000     23  1.500
     1  2.500     23  1.500
     2   .000      7  1.500

 PAW_PBE C 08Apr2002                    :

 POSCAR: CIF file
  positions in direct lattice
  velocities in cartesian coordinates
 exchange correlation table for  LEXCH =        8
   RHO(1)=    0.500       N(1)  =     2000
   RHO(2)=  100.500       N(2)  =     4000

 ion  position               nearest neighbor table
   1  1.000  0.000  0.250-   3 1.42   3 1.42   3 1.42
   2  0.000  1.000  0.750-   4 1.42   4 1.42   4 1.42
   3  0.333  0.667  0.250-   1 1.42   1 1.42   1 1.42
   4  0.667  0.333  0.750-   2 1.42   2 1.42   2 1.42

  LATTYP: Found a base centered orthorhombic cell.
 ALAT       =     2.4669628383
 B/A-ratio  =     1.7322311103
 C/A-ratio  =     3.1352736810

  Lattice vectors:

 A1 = (   2.4671554424,  -0.0001112000,   0.0000000000)
 A2 = (  -1.2336740232,   2.1365636881,   0.0000000000)
 A3 = (   0.0000000000,   0.0000000000,   7.7346036590)

Analysis of symmetry for initial positions (statically):
 Subroutine PRICEL returns:
 Original cell was already a primitive cell.

 Routine SETGRP: Setting up the symmetry group for a
 base centered orthorhombic supercell.

 Subroutine GETGRP returns: Found  8 space group operations
 (whereof  4 operations were pure point group operations)
 out of a pool of  8 trial point group operations.

The static configuration has the point symmetry C_2h.
 The point group associated with its full space group is D_2h.

Analysis of symmetry for dynamics (positions and initial velocities):
 Subroutine PRICEL returns:
 Original cell was already a primitive cell.

 Routine SETGRP: Setting up the symmetry group for a
 base centered orthorhombic supercell.

 Subroutine GETGRP returns: Found  8 space group operations
 (whereof  4 operations were pure point group operations)
 out of a pool of  8 trial point group operations.

The dynamic configuration has the point symmetry C_2h.
 The point group associated with its full space group is D_2h.

 KPOINTS: B4C B11C-CBC

Automatic generation of k-mesh.
Space group operators:
 irot       det(A)        alpha          n_x          n_y          n_z        tau_x        tau_y        tau_z
    1     1.000000     0.000001     1.000000     0.000000     0.000000     0.000000     0.000000     0.000000
    2    -1.000000     0.000001     1.000000     0.000000     0.000000     0.000000     0.000000     0.000000
    3     1.000000   179.999999    -0.500000    -0.866025     0.000000     0.000000     0.000000     0.000000
    4    -1.000000   179.999999    -0.500000    -0.866025     0.000000     0.000000     0.000000     0.000000
    5     1.000000   180.000000     0.000000     0.000000     1.000000     0.000000     0.000000     0.500000
    6    -1.000000   180.000000     0.000000     0.000000     1.000000     0.000000     0.000000     0.500000
    7     1.000000   180.000000     0.866025    -0.500000     0.000000     0.000000     0.000000     0.500000
    8    -1.000000   180.000000     0.866025    -0.500000     0.000000     0.000000     0.000000     0.500000

 Subroutine IBZKPT returns following result:

 Found    455 irreducible k-points:

 Following reciprocal coordinates:
            Coordinates               Weight
  0.000000  0.000000  0.000000      1.000000
  0.055556  0.000000  0.000000      4.000000
  0.111111  0.000000  0.000000      4.000000
  0.166667  0.000000  0.000000      4.000000
  0.222222  0.000000  0.000000      4.000000
  0.277778 -0.000000  0.000000      4.000000
  0.333333  0.000000  0.000000      4.000000
  0.388889  0.000000  0.000000      4.000000
  0.444444  0.000000  0.000000      4.000000
  0.500000  0.000000  0.000000      2.000000
  0.055556  0.055556  0.000000      2.000000
  0.111111  0.055556  0.000000      4.000000
  0.166667  0.055556  0.000000      4.000000
  0.222222  0.055556  0.000000      4.000000
  0.277778  0.055556  0.000000      4.000000
  0.333333  0.055556  0.000000      4.000000
  0.388889  0.055556  0.000000      4.000000
  0.444444  0.055556  0.000000      4.000000
  0.500000  0.055556  0.000000      4.000000
 -0.444444  0.055556  0.000000      4.000000
 -0.388889  0.055556  0.000000      4.000000
 -0.333333  0.055556  0.000000      4.000000
 -0.277778  0.055556  0.000000      4.000000
 -0.222222  0.055556  0.000000      4.000000
 -0.166667  0.055556  0.000000      4.000000
 -0.111111  0.055556  0.000000      4.000000
 -0.055556  0.055556  0.000000      2.000000
  0.111111  0.111111  0.000000      2.000000
  0.166667  0.111111  0.000000      4.000000
  0.222222  0.111111  0.000000      4.000000
  0.277778  0.111111  0.000000      4.000000
  0.333333  0.111111  0.000000      4.000000
  0.388889  0.111111  0.000000      4.000000
  0.444444  0.111111  0.000000      4.000000
  0.500000  0.111111  0.000000      4.000000
 -0.444444  0.111111  0.000000      4.000000
 -0.388889  0.111111  0.000000      4.000000
 -0.333333  0.111111  0.000000      4.000000
 -0.277778  0.111111  0.000000      4.000000
 -0.222222  0.111111  0.000000      4.000000
 -0.166667  0.111111  0.000000      4.000000
 -0.111111  0.111111  0.000000      2.000000
  0.166667  0.166667  0.000000      2.000000
  0.222222  0.166667  0.000000      4.000000
  0.277778  0.166667  0.000000      4.000000
  0.333333  0.166667  0.000000      4.000000
  0.388889  0.166667  0.000000      4.000000
  0.444444  0.166667  0.000000      4.000000
  0.500000  0.166667  0.000000      4.000000
 -0.444444  0.166667  0.000000      4.000000
 -0.388889  0.166667  0.000000      4.000000
 -0.333333  0.166667  0.000000      4.000000
 -0.277778  0.166667  0.000000      4.000000
 -0.222222  0.166667  0.000000      4.000000
 -0.166667  0.166667  0.000000      2.000000
  0.222222  0.222222  0.000000      2.000000
  0.277778  0.222222  0.000000      4.000000
  0.333333  0.222222  0.000000      4.000000
  0.388889  0.222222  0.000000      4.000000
  0.444444  0.222222  0.000000      4.000000
[...]
  0.388889  0.333333  0.500000      4.000000
  0.444444  0.333333  0.500000      4.000000
  0.500000  0.333333  0.500000      4.000000
 -0.444444  0.333333  0.500000      4.000000
 -0.388889  0.333333  0.500000      4.000000
 -0.333333  0.333333  0.500000      2.000000
  0.388889  0.388889  0.500000      2.000000
  0.444444  0.388889  0.500000      4.000000
  0.500000  0.388889  0.500000      4.000000
 -0.444444  0.388889  0.500000      4.000000
 -0.388889  0.388889  0.500000      2.000000
  0.444444  0.444444  0.500000      2.000000
  0.500000  0.444444  0.500000      4.000000
 -0.444444  0.444444  0.500000      2.000000
  0.500000  0.500000  0.500000      1.000000

 Following cartesian coordinates:
            Coordinates               Weight
  0.000000  0.000000  0.000000      1.000000
  0.022519  0.013002  0.000000      4.000000
  0.045037  0.026005  0.000000      4.000000
  0.067556  0.039007  0.000000      4.000000
  0.090075  0.052010  0.000000      4.000000
  0.112593  0.065012  0.000000      4.000000
  0.135112  0.078015  0.000000      4.000000
  0.157631  0.091017  0.000000      4.000000
  0.180149  0.104020  0.000000      4.000000
  0.202668  0.117022  0.000000      2.000000
  0.022520  0.039005  0.000000      2.000000
  0.045038  0.052008  0.000000      4.000000
  0.067557  0.065010  0.000000      4.000000
  0.090076  0.078013  0.000000      4.000000
  0.112594  0.091015  0.000000      4.000000
  0.135113  0.104018  0.000000      4.000000
  0.157632  0.117020  0.000000      4.000000
  0.180150  0.130023  0.000000      4.000000
  0.202669  0.143025  0.000000      4.000000
 -0.180148 -0.078017  0.000000      4.000000
 -0.157629 -0.065015  0.000000      4.000000
 -0.135111 -0.052012  0.000000      4.000000
 -0.112592 -0.039010  0.000000      4.000000
 -0.090073 -0.026007  0.000000      4.000000
 -0.067555 -0.013005  0.000000      4.000000
 -0.045036 -0.000002  0.000000      4.000000
 -0.022517  0.013000  0.000000      2.000000
  0.045040  0.078011  0.000000      2.000000
  0.067558  0.091013  0.000000      4.000000
  0.090077  0.104016  0.000000      4.000000
  0.112596  0.117018  0.000000      4.000000
  0.135114  0.130021  0.000000      4.000000
  0.157633  0.143023  0.000000      4.000000
  0.180152  0.156026  0.000000      4.000000
  0.202670  0.169028  0.000000      4.000000
 -0.180147 -0.052014  0.000000      4.000000
 -0.157628 -0.039012  0.000000      4.000000
 -0.135110 -0.026009  0.000000      4.000000
 -0.112591 -0.013007  0.000000      4.000000
 -0.090072 -0.000004  0.000000      4.000000
 -0.067554  0.012998  0.000000      4.000000
 -0.045035  0.026001  0.000000      2.000000
  0.067559  0.117016  0.000000      2.000000
  0.090078  0.130019  0.000000      4.000000
  0.112597  0.143021  0.000000      4.000000
  0.135115  0.156024  0.000000      4.000000
  0.157634  0.169026  0.000000      4.000000
  0.180153  0.182029  0.000000      4.000000
  0.202671  0.195031  0.000000      4.000000
 -0.180146 -0.026011  0.000000      4.000000
 -0.157627 -0.013009  0.000000      4.000000
 -0.135108 -0.000006  0.000000      4.000000
 -0.112590  0.012996  0.000000      4.000000
 -0.090071  0.025999  0.000000      4.000000
 -0.067552  0.039001  0.000000      2.000000
  0.090079  0.156022  0.000000      2.000000
  0.112598  0.169024  0.000000      4.000000
  0.135117  0.182027  0.000000      4.000000
  0.157635  0.195029  0.000000      4.000000
  0.180154  0.208032  0.000000      4.000000
[...]
  0.157638  0.247035  0.064645      4.000000
  0.180156  0.260038  0.064645      4.000000
  0.202675  0.273040  0.064645      4.000000
 -0.180142  0.051998  0.064645      4.000000
 -0.157623  0.065000  0.064645      4.000000
 -0.135105  0.078003  0.064645      2.000000
  0.157639  0.273038  0.064645      2.000000
  0.180157  0.286041  0.064645      4.000000
  0.202676  0.299043  0.064645      4.000000
 -0.180141  0.078001  0.064645      4.000000
 -0.157622  0.091003  0.064645      2.000000
  0.180159  0.312044  0.064645      2.000000
  0.202677  0.325046  0.064645      4.000000
 -0.180140  0.104004  0.064645      2.000000
  0.202678  0.351049  0.064645      1.000000

 TETIRR: Found   3888 inequivalent tetrahedra from    15552

 I would recommend the setting:
   dimension x,y,z NGX =    20 NGY =   20 NGZ =   62
 SYSTEM =  graphite
 POSCAR =  CIF file

 Startparameter for this run:
   NWRITE =      2    write-flag & timer
   PREC   = accura    normal or accurate (medium, high low for compatibility)
   ISTART =      0    job   : 0-new  1-cont  2-samecut
   ICHARG =      2    charge: 1-file 2-atom 10-const
   ISPIN  =      1    spin polarized calculation?
   LNONCOLLINEAR =      F non collinear calculations
   LSORBIT =      F    spin-orbit coupling
[...]
 k-point 33 :   0.3889 0.1111 0.0000  plane waves:    1371
 k-point 34 :   0.4444 0.1111 0.0000  plane waves:    1371
 k-point 35 :   0.5000 0.1111 0.0000  plane waves:    1371
 k-point 36 :  -0.4444 0.1111 0.0000  plane waves:    1365
 k-point 37 :  -0.3889 0.1111 0.0000  plane waves:    1366
 k-point 38 :  -0.3333 0.1111 0.0000  plane waves:    1353
 k-point 39 :  -0.2778 0.1111 0.0000  plane waves:    1356
 k-point 40 :  -0.2222 0.1111 0.0000  plane waves:    1345
 k-point 41 :  -0.1667 0.1111 0.0000  plane waves:    1346
 k-point 42 :  -0.1111 0.1111 0.0000  plane waves:    1341
 k-point 43 :   0.1667 0.1667 0.0000  plane waves:    1349
 k-point 44 :   0.2222 0.1667 0.0000  plane waves:    1346
 k-point 45 :   0.2778 0.1667 0.0000  plane waves:    1359
 k-point 46 :   0.3333 0.1667 0.0000  plane waves:    1369
 k-point 47 :   0.3889 0.1667 0.0000  plane waves:    1381
 k-point 48 :   0.4444 0.1667 0.0000  plane waves:    1381
 k-point 49 :   0.5000 0.1667 0.0000  plane waves:    1369
 k-point 50 :  -0.4444 0.1667 0.0000  plane waves:    1359
 k-point 51 :  -0.3889 0.1667 0.0000  plane waves:    1346
 k-point 52 :  -0.3333 0.1667 0.0000  plane waves:    1349
 k-point 53 :  -0.2778 0.1667 0.0000  plane waves:    1356
 k-point 54 :  -0.2222 0.1667 0.0000  plane waves:    1349
 k-point 55 :  -0.1667 0.1667 0.0000  plane waves:    1353
 k-point 56 :   0.2222 0.2222 0.0000  plane waves:    1359
 k-point 57 :   0.2778 0.2222 0.0000  plane waves:    1370
 k-point 58 :   0.3333 0.2222 0.0000  plane waves:    1378
 k-point 59 :   0.3889 0.2222 0.0000  plane waves:    1379
 k-point 60 :   0.4444 0.2222 0.0000  plane waves:    1378
[...]
 k-point 85 :   0.5000 0.3889 0.0000  plane waves:    1371
 k-point 86 :  -0.4444 0.3889 0.0000  plane waves:    1364
 k-point 87 :  -0.3889 0.3889 0.0000  plane waves:    1360
 k-point 88 :   0.4444 0.4444 0.0000  plane waves:    1371
 k-point 89 :   0.5000 0.4444 0.0000  plane waves:    1362
 k-point 90 :  -0.4444 0.4444 0.0000  plane waves:    1364
 k-point 91 :   0.5000 0.5000 0.0000  plane waves:    1360
 k-point 92 :   0.0000 0.0000 0.1250  plane waves:    1339
 k-point 93 :   0.0556 0.0000 0.1250  plane waves:    1340
 k-point 94 :   0.1111 0.0000 0.1250  plane waves:    1335
 k-point 95 :   0.1667 0.0000 0.1250  plane waves:    1352
 k-point 96 :   0.2222 0.0000 0.1250  plane waves:    1354
 k-point 97 :   0.2778-0.0000 0.1250  plane waves:    1349
 k-point 98 :   0.3333 0.0000 0.1250  plane waves:    1359
 k-point 99 :   0.3889 0.0000 0.1250  plane waves:    1362
 k-point ** :   0.4444 0.0000 0.1250  plane waves:    1359
 k-point ** :   0.5000 0.0000 0.1250  plane waves:    1356
 k-point ** :   0.0556 0.0556 0.1250  plane waves:    1338
 k-point ** :   0.1111 0.0556 0.1250  plane waves:    1348
 k-point ** :   0.1667 0.0556 0.1250  plane waves:    1354
 k-point ** :   0.2222 0.0556 0.1250  plane waves:    1352
 k-point ** :   0.2778 0.0556 0.1250  plane waves:    1355
 k-point ** :   0.3333 0.0556 0.1250  plane waves:    1361
 k-point ** :   0.3889 0.0556 0.1250  plane waves:    1363
 k-point ** :   0.4444 0.0556 0.1250  plane waves:    1362
 k-point ** :   0.5000 0.0556 0.1250  plane waves:    1362
 k-point ** :  -0.4444 0.0556 0.1250  plane waves:    1363
 k-point ** :  -0.3889 0.0556 0.1250  plane waves:    1361
 k-point ** :  -0.3333 0.0556 0.1250  plane waves:    1355
 k-point ** :  -0.2778 0.0556 0.1250  plane waves:    1353
 k-point ** :  -0.2222 0.0556 0.1250  plane waves:    1354
 k-point ** :  -0.1667 0.0556 0.1250  plane waves:    1349
 k-point ** :  -0.1111 0.0556 0.1250  plane waves:    1338
 k-point ** :  -0.0556 0.0556 0.1250  plane waves:    1340
 k-point ** :   0.1111 0.1111 0.1250  plane waves:    1355
 k-point ** :   0.1667 0.1111 0.1250  plane waves:    1352
 k-point ** :   0.2222 0.1111 0.1250  plane waves:    1355
 k-point ** :   0.2778 0.1111 0.1250  plane waves:    1360
 k-point ** :   0.3333 0.1111 0.1250  plane waves:    1365
 k-point ** :   0.3889 0.1111 0.1250  plane waves:    1371
 k-point ** :   0.4444 0.1111 0.1250  plane waves:    1368
 k-point ** :   0.5000 0.1111 0.1250  plane waves:    1371
 k-point ** :  -0.4444 0.1111 0.1250  plane waves:    1365
 k-point ** :  -0.3889 0.1111 0.1250  plane waves:    1360
 k-point ** :  -0.3333 0.1111 0.1250  plane waves:    1356
 k-point ** :  -0.2778 0.1111 0.1250  plane waves:    1352
 k-point ** :  -0.2222 0.1111 0.1250  plane waves:    1355
 k-point ** :  -0.1667 0.1111 0.1250  plane waves:    1348
 k-point ** :  -0.1111 0.1111 0.1250  plane waves:    1335
 k-point ** :   0.1667 0.1667 0.1250  plane waves:    1353
 k-point ** :   0.2222 0.1667 0.1250  plane waves:    1349
 k-point ** :   0.2778 0.1667 0.1250  plane waves:    1360
 k-point ** :   0.3333 0.1667 0.1250  plane waves:    1374
 k-point ** :   0.3889 0.1667 0.1250  plane waves:    1375
 k-point ** :   0.4444 0.1667 0.1250  plane waves:    1375
 k-point ** :   0.5000 0.1667 0.1250  plane waves:    1374
 k-point ** :  -0.4444 0.1667 0.1250  plane waves:    1360
 k-point ** :  -0.3889 0.1667 0.1250  plane waves:    1349
 k-point ** :  -0.3333 0.1667 0.1250  plane waves:    1353
 k-point ** :  -0.2778 0.1667 0.1250  plane waves:    1352
 k-point ** :  -0.2222 0.1667 0.1250  plane waves:    1354
 k-point ** :  -0.1667 0.1667 0.1250  plane waves:    1352
 k-point ** :   0.2222 0.2222 0.1250  plane waves:    1361
 k-point ** :   0.2778 0.2222 0.1250  plane waves:    1369
 k-point ** :   0.3333 0.2222 0.1250  plane waves:    1377
 k-point ** :   0.3889 0.2222 0.1250  plane waves:    1372
 k-point ** :   0.4444 0.2222 0.1250  plane waves:    1377
 k-point ** :   0.5000 0.2222 0.1250  plane waves:    1369
 k-point ** :  -0.4444 0.2222 0.1250  plane waves:    1361
 k-point ** :  -0.3889 0.2222 0.1250  plane waves:    1350
 k-point ** :  -0.3333 0.2222 0.1250  plane waves:    1355
 k-point ** :  -0.2778 0.2222 0.1250  plane waves:    1353
 k-point ** :  -0.2222 0.2222 0.1250  plane waves:    1354
 k-point ** :   0.2778 0.2778 0.1250  plane waves:    1379
 k-point ** :   0.3333 0.2778 0.1250  plane waves:    1386
[...]
 k-point ** :   0.3889 0.3333 0.5000  plane waves:    1376
 k-point ** :   0.4444 0.3333 0.5000  plane waves:    1376
 k-point ** :   0.5000 0.3333 0.5000  plane waves:    1368
 k-point ** :  -0.4444 0.3333 0.5000  plane waves:    1360
 k-point ** :  -0.3889 0.3333 0.5000  plane waves:    1358
 k-point ** :  -0.3333 0.3333 0.5000  plane waves:    1360
 k-point ** :   0.3889 0.3889 0.5000  plane waves:    1378
 k-point ** :   0.4444 0.3889 0.5000  plane waves:    1366
 k-point ** :   0.5000 0.3889 0.5000  plane waves:    1362
 k-point ** :  -0.4444 0.3889 0.5000  plane waves:    1356
 k-point ** :  -0.3889 0.3889 0.5000  plane waves:    1362
 k-point ** :   0.4444 0.4444 0.5000  plane waves:    1374
 k-point ** :   0.5000 0.4444 0.5000  plane waves:    1366
 k-point ** :  -0.4444 0.4444 0.5000  plane waves:    1368
 k-point ** :   0.5000 0.5000 0.5000  plane waves:    1360

 maximum and minimum number of plane-waves per node :       471      433

 maximum number of plane-waves:      1392
 maximum index in each direction:
   IXMAX=    5   IYMAX=    4   IZMAX=   15
   IXMIN=   -5   IYMIN=   -5   IZMIN=  -15

 WARNING: aliasing errors must be expected set NGX to  22 to avoid them
 NGY is ok and might be reduce to  20
 NGZ is ok and might be reduce to  62
 aliasing errors are usually negligible using standard VASP settings
 and one can safely disregard these warnings

 parallel 3D FFT for wavefunctions:
    minimum data exchange during FFTs selected (reduces bandwidth)
 parallel 3D FFT for charge:
    minimum data exchange during FFTs selected (reduces bandwidth)

 Broyden mixing: mesh for mixing (old mesh)
   NGX =  9   NGY =  9   NGZ = 31
  (NGX  = 40   NGY  = 40   NGZ  =128)
  gives a total of   2511 points

 initial charge density was supplied:
 charge density of overlapping atoms calculated
 number of electron      16.0000000 magnetization
 keeping initial charge density in first step

 Maximum index for augmentation-charges         1367 (set IRDMAX)

 First call to EWALD:  gamma=   0.515
 Maximum number of real-space cells 4x 4x 1
 Maximum number of reciprocal cells 2x 2x 6

 FEWALD executed in parallel

----------------------------------------- Iteration    1(   1)  ---------------------------------------

 BZINTS: Fermi energy: 12.939686; 16.000000 electrons
         Band energy: -26.282154;  BLOECHL correction: -0.368041

 eigenvalue-minimisations  : 10952
 total energy-change (2. order) : 0.6456851E+02  (-0.8842266E+03)
 number of electron      16.0000000 magnetization
 augmentation part       16.0000000 magnetization

 Free energy of the ion-electron system (eV)
  alpha Z        PSCENC =        31.97663499
  Ewald energy   TEWEN  =      -366.95910080
  -Hartree energ DENC   =      -213.36701448
  -exchange      EXHF   =         0.00000000
  -V(xc)+E(xc)   XCENC  =        55.20091242
  PAW double counting   =       151.32577238     -155.92769107
  entropy T*S    EENTRO =         0.00000000
  eigenvalues    EBANDS =       -26.28215360
  atomic energy  EATOM  =       588.60115103
  free energy    TOTEN  =        64.56851088 eV

  energy without entropy =       64.56851088  energy(sigma->0) =       64.56851088

[...]

 BZINTS: Fermi energy:  2.201458; 16.000000 electrons
         Band energy:-125.097029;  BLOECHL correction:  0.000000

 eigenvalue-minimisations  : 15692
 total energy-change (2. order) :-0.9881488E+02  (-0.9047363E+02)
 number of electron      16.0000000 magnetization
 augmentation part       16.0000000 magnetization

[...]

 Broyden mixing:
  rms(total) = 0.77995E+00    rms(broyden)= 0.77986E+00
  rms(prec ) = 0.11648E+01
  weight for this iteration     100.00

[...]

 BZINTS: Fermi energy:  2.592459; 16.000000 electrons
         Band energy:-110.854214;  BLOECHL correction: -0.000007

[...]

 eigenvalues of (default mixing * dielectric matrix)
  average eigenvalue GAMMA=   2.0352
  2.0352

[...]

 eigenvalue-minimisations  : 12924
 total energy-change (2. order) : 0.6172577E+00  (-0.1989477E+00)
 number of electron      16.0000000 magnetization
 augmentation part        0.3851273 magnetization

[...]

 Broyden mixing:
  rms(total) = 0.32058E-04    rms(broyden)= 0.31958E-04
  rms(prec ) = 0.43293E-04
  weight for this iteration     100.00

 eigenvalues of (default mixing * dielectric matrix)
  average eigenvalue GAMMA=   1.9112
  3.1590  2.6972  2.4070  1.9590  0.9678  1.0406  1.1476

[...]

----------------------------------------- Iteration    1(  13)  ---------------------------------------

 BZINTS: Fermi energy:  3.508495; 16.000000 electrons
         Band energy: -89.815656;  BLOECHL correction: -0.000009

 eigenvalue-minimisations  :  9524
 total energy-change (2. order) :-0.4408423E-07  (-0.2674621E-08)
 number of electron      16.0000000 magnetization
 augmentation part        0.3829693 magnetization

 Free energy of the ion-electron system (eV)
  alpha Z        PSCENC =        31.97663499
  Ewald energy   TEWEN  =      -366.95910080
  -Hartree energ DENC   =      -253.06903431
  -exchange      EXHF   =         0.00000000
  -V(xc)+E(xc)   XCENC  =        57.54083022
  PAW double counting   =       277.28489814     -282.44787535
  entropy T*S    EENTRO =         0.00000000
  eigenvalues    EBANDS =       -89.81565566
  atomic energy  EATOM  =       588.60115103
  free energy    TOTEN  =       -36.88815173 eV

  energy without entropy =      -36.88815173  energy(sigma->0) =      -36.88815173

 average (electrostatic) potential at core
  the test charge radii are     0.6991
  (the norm of the test charge is              1.0000)
       1 -51.9151       2 -51.9151       3 -51.9121       4 -51.9121

 E-fermi :   3.5085     XC(G=0):  -9.3351     alpha+bet : -9.8494

 k-point     1 :       0.0000    0.0000    0.0000
  band No.  band energies     occupation
      1     -16.0302      2.00000
      2     -15.9391      2.00000
      3      -4.5203      2.00000
      4      -3.6251      2.00000
      5       0.4854      2.00000
      6       0.4892      2.00000
      7       0.4901      2.00000
      8       0.4939      2.00000
      9       6.9442      0.00000
     10      11.4501      0.00000
     11      11.8272      0.00000
     12      11.8377      0.00000

[...]

 k-point   455 :       0.5000    0.5000    0.5000
  band No.  band energies     occupation
      1     -10.7498      2.00000
      2     -10.7498      2.00000
      3      -9.7020      2.00000
      4      -9.7020      2.00000
      5      -2.8817      2.00000
      6      -2.8817      2.00000
      7       1.1531      2.00000
      8       1.1531      2.00000
      9       5.1760      0.00000
     10       5.1760      0.00000
     11      10.8828      0.00000
     12      10.8828      0.00000

 soft charge-density along one line, spin component           1
         0         1         2         3         4         5         6         7         8         9
 total charge-density along one line

------------------------ aborting loop because EDIFF is reached ----------------------------------------

         DFTD3 V3.0 Rev 1
 IVDW         = 11
 DF pbe
 parameters
 VDW_S6       =    1.0000
 VDW_S8       =    0.7220
 VDW_SR       =    1.2170
 rs18     =    1.0000
 alpha6   =   14.0000
 alpha8   =   16.0000
 k1-k3    =   16.0000    1.3333   -4.0000
 VDW_RADIUS   =   50.2022 A
 VDW_CNRADIUS =   21.1671 A
 Edisp (eV)   -0.31081

 E6    (eV) :    -0.2109
 E8    (eV) :    -0.0999
 % E8        : 32.15

  FORCE on cell =-STRESS in cart. coord.  units (eV):
  Direction    XX          YY          ZZ          XY          YZ          ZX
  Alpha Z    31.97663    31.97663    31.97663
  Ewald     170.61317   170.56333  -708.13605    -0.04317    -0.00000    -0.00000
  Hartree   230.44336   230.43666  -207.81097    -0.00580    -0.00000    -0.00000
  E(xc)     -58.35829   -58.35860   -60.65059    -0.00027    -0.00000     0.00000
  Local    -599.11653  -599.06817   684.07088     0.04188    -0.00000    -0.00000
  n-local   -14.42991   -13.67667   -12.79462    -0.21948     0.00306    -0.00302
  augment    -1.54343    -1.54335    -1.41500     0.00007    -0.00000     0.00000
  Kinetic   243.73812   236.35084   274.81193     2.15371    -0.04717     0.04394
  Fock        0.00000     0.00000     0.00000     0.00000     0.00000     0.00000
  vdW        -0.06672    -0.06666    -0.49702     0.00005     0.00000     0.00000
  Total      -0.06891    -0.06068    -0.44480     0.00713     0.00000     0.00000
  in kB      -2.70814    -2.38469   -17.47980     0.28012     0.00000     0.00000

 VOLUME and BASIS-vectors are now :
  energy-cutoff  :      600.00
  volume of cell :       40.77
      direct lattice vectors                 reciprocal lattice vectors
     2.467155442 -0.000111200  0.000000000     0.405335638  0.234045000  0.000000000
    -1.233674023  2.136563688  0.000000000     0.000021096  0.468053460  0.000000000
     0.000000000  0.000000000  7.734603659     0.000000000  0.000000000  0.129289107

  length of vectors
     2.467155445  2.467155445  7.734603659     0.468053460  0.468053460  0.129289107

 FORCES acting on ions
    electron-ion (+dipol)            ewald-force                    non-local-force                 convergence-correction
   0.535E-03 -.321E-03 0.362E-12   -.265E-02 0.151E-02 -.196E-13   -.168E-02 0.972E-03 0.542E-19   -.855E-05 0.494E-05 0.468E-14
   -.545E-03 0.303E-03 0.329E-12   0.264E-02 -.154E-02 0.196E-13   0.168E-02 -.972E-03 -.542E-19   0.855E-05 -.494E-05 0.178E-13
   -.157E-02 0.912E-03 0.169E-12   0.266E-02 -.152E-02 -.196E-13   0.119E-02 -.684E-03 0.000E+00   0.817E-05 -.472E-05 0.244E-14
   0.158E-02 -.905E-03 -.590E-13   -.264E-02 0.154E-02 0.196E-13   -.119E-02 0.684E-03 0.000E+00   -.817E-05 0.472E-05 0.165E-13
   -.678E-05 -.117E-04 0.800E-12   -.327E-14 0.407E-14 0.000E+00   0.111E-15 0.111E-15 0.000E+00   -.104E-10 -.180E-10 0.414E-13

 POSITION                                       TOTAL-FORCE (eV/Angst)
      2.46715     -0.00011      1.93365        -0.003795      0.002191     -0.000000
     -1.23367      2.13656      5.80095         0.003795     -0.002191     -0.000000
     -0.00019      1.42441      1.93365         0.002268     -0.001309      0.000000
      1.23367      0.71204      5.80095        -0.002268      0.001309     -0.000000
    total drift:                               -0.000007     -0.000012      0.000000

  FREE ENERGIE OF THE ION-ELECTRON SYSTEM (eV)
  free  energy   TOTEN  =       -37.19896293 eV

  energy  without entropy=      -37.19896293  energy(sigma->0) =      -37.19896293

 reached required accuracy - stopping structural energy minimisation
 BZINTS: Fermi energy:  3.508495; 16.000000 electrons
         Band energy: -89.815656;  BLOECHL correction: -0.000009