 vasp.5.3.5 31Mar14 (build Nov 02 2014 15:17:37) complex

 executed on        ion-Intel-MKL date 2016.08.12  21:52:59

 INCAR:
 POTCAR:   PAW_PBE C 08Apr2002
 POTCAR:   PAW_PBE C 08Apr2002
   VRHFIN =C: s2p2

   TITEL  = PAW_PBE C 08Apr2002
   POMASS =   12.011; ZVAL   =    4.000    mass and valenz
   ENMAX  =  400.000; ENMIN  =  300.000 eV
   QCUT   =   -5.516; QGAM   =   11.032    optimization parameters

   Description
     l     E      TYP  RCUT    TYP  RCUT
     0   .000     23  1.200
     0   .000     23  1.200
     1   .000     23  1.500
     1  2.500     23  1.500
     2   .000      7  1.500

 PAW_PBE C 08Apr2002                    :

 POSCAR: CIF file
  positions in direct lattice
  velocities in cartesian coordinates
 exchange correlation table for  LEXCH =        8
   RHO(1)=    0.500       N(1)  =     2000
   RHO(2)=  100.500       N(2)  =     4000

 ion  position               nearest neighbor table
   1  1.000  0.000  0.250-   3 1.42   3 1.42   3 1.42
   2  0.000  1.000  0.750-   4 1.42   4 1.42   4 1.42
   3  0.333  0.667  0.250-   1 1.42   1 1.42   1 1.42
   4  0.667  0.333  0.750-   2 1.42   2 1.42   2 1.42

  LATTYP: Found a base centered orthorhombic cell.
 ALAT       =     2.4669628383
 B/A-ratio  =     1.7322311103
 C/A-ratio  =     2.7263249401

  Lattice vectors:

 A1 = (   2.4671554424,  -0.0001112000,   0.0000000000)
 A2 = (  -1.2336740232,   2.1365636881,   0.0000000000)
 A3 = (   0.0000000000,   0.0000000000,   6.7257423124)

Analysis of symmetry for initial positions (statically):
 Subroutine PRICEL returns:
 Original cell was already a primitive cell.

 Routine SETGRP: Setting up the symmetry group for a
 base centered orthorhombic supercell.

 Subroutine GETGRP returns: Found  8 space group operations
 (whereof  4 operations were pure point group operations)
 out of a pool of  8 trial point group operations.

The static configuration has the point symmetry C_2h.
 The point group associated with its full space group is D_2h.

Analysis of symmetry for dynamics (positions and initial velocities):
 Subroutine PRICEL returns:
 Original cell was already a primitive cell.

 Routine SETGRP: Setting up the symmetry group for a
 base centered orthorhombic supercell.

 Subroutine GETGRP returns: Found  8 space group operations
 (whereof  4 operations were pure point group operations)
 out of a pool of  8 trial point group operations.

The dynamic configuration has the point symmetry C_2h.
 The point group associated with its full space group is D_2h.

 KPOINTS: B4C B11C-CBC

Automatic generation of k-mesh.
Space group operators:
 irot       det(A)        alpha          n_x          n_y          n_z        tau_x        tau_y        tau_z
    1     1.000000     0.000001     1.000000     0.000000     0.000000     0.000000     0.000000     0.000000
    2    -1.000000     0.000001     1.000000     0.000000     0.000000     0.000000     0.000000     0.000000
    3     1.000000   180.000000    -0.500000    -0.866025     0.000000     0.000000     0.000000     0.000000
    4    -1.000000   180.000000    -0.500000    -0.866025     0.000000     0.000000     0.000000     0.000000
    5     1.000000   179.999999     0.000000     0.000000     1.000000     0.000000     0.000000     0.500000
    6    -1.000000   179.999999     0.000000     0.000000     1.000000     0.000000     0.000000     0.500000
    7     1.000000   179.999999     0.866025    -0.500000     0.000000     0.000000     0.000000     0.500000
    8    -1.000000   179.999999     0.866025    -0.500000     0.000000     0.000000     0.000000     0.500000

 Subroutine IBZKPT returns following result:

 Found    455 irreducible k-points:

 Following reciprocal coordinates:
            Coordinates               Weight
  0.000000  0.000000  0.000000      1.000000
  0.055556 -0.000000  0.000000      4.000000
  0.111111 -0.000000  0.000000      4.000000
  0.166667 -0.000000  0.000000      4.000000
  0.222222 -0.000000  0.000000      4.000000
  0.277778  0.000000  0.000000      4.000000
  0.333333 -0.000000  0.000000      4.000000
  0.388889 -0.000000  0.000000      4.000000
  0.444444 -0.000000  0.000000      4.000000
  0.500000 -0.000000  0.000000      2.000000
  0.055556  0.055556  0.000000      2.000000
  0.111111  0.055556  0.000000      4.000000
  0.166667  0.055556  0.000000      4.000000
  0.222222  0.055556  0.000000      4.000000
  0.277778  0.055556  0.000000      4.000000
  0.333333  0.055556  0.000000      4.000000
  0.388889  0.055556  0.000000      4.000000
  0.444444  0.055556  0.000000      4.000000
  0.500000  0.055556  0.000000      4.000000
 -0.444444  0.055556  0.000000      4.000000
 -0.388889  0.055556  0.000000      4.000000
 -0.333333  0.055556  0.000000      4.000000
 -0.277778  0.055556  0.000000      4.000000
 -0.222222  0.055556  0.000000      4.000000
 -0.166667  0.055556  0.000000      4.000000
 -0.111111  0.055556  0.000000      4.000000
 -0.055556  0.055556  0.000000      2.000000
  0.111111  0.111111  0.000000      2.000000
  0.166667  0.111111  0.000000      4.000000
  0.222222  0.111111  0.000000      4.000000
  0.277778  0.111111  0.000000      4.000000
  0.333333  0.111111  0.000000      4.000000
  0.388889  0.111111  0.000000      4.000000
  0.444444  0.111111  0.000000      4.000000
  0.500000  0.111111  0.000000      4.000000
 -0.444444  0.111111  0.000000      4.000000
 -0.388889  0.111111  0.000000      4.000000
 -0.333333  0.111111  0.000000      4.000000
 -0.277778  0.111111  0.000000      4.000000
 -0.222222  0.111111  0.000000      4.000000
 -0.166667  0.111111  0.000000      4.000000
 -0.111111  0.111111  0.000000      2.000000
  0.166667  0.166667  0.000000      2.000000
  0.222222  0.166667  0.000000      4.000000
  0.277778  0.166667  0.000000      4.000000
  0.333333  0.166667  0.000000      4.000000
  0.388889  0.166667  0.000000      4.000000
  0.444444  0.166667  0.000000      4.000000
  0.500000  0.166667  0.000000      4.000000
 -0.444444  0.166667  0.000000      4.000000
 -0.388889  0.166667  0.000000      4.000000
 -0.333333  0.166667  0.000000      4.000000
 -0.277778  0.166667  0.000000      4.000000
 -0.222222  0.166667  0.000000      4.000000
 -0.166667  0.166667  0.000000      2.000000
  0.222222  0.222222  0.000000      2.000000
  0.277778  0.222222  0.000000      4.000000
  0.333333  0.222222  0.000000      4.000000
  0.388889  0.222222  0.000000      4.000000
  0.444444  0.222222  0.000000      4.000000
[...]
  0.388889  0.333333  0.500000      4.000000
  0.444444  0.333333  0.500000      4.000000
  0.500000  0.333333  0.500000      4.000000
 -0.444444  0.333333  0.500000      4.000000
 -0.388889  0.333333  0.500000      4.000000
 -0.333333  0.333333  0.500000      2.000000
  0.388889  0.388889  0.500000      2.000000
  0.444444  0.388889  0.500000      4.000000
  0.500000  0.388889  0.500000      4.000000
 -0.444444  0.388889  0.500000      4.000000
 -0.388889  0.388889  0.500000      2.000000
  0.444444  0.444444  0.500000      2.000000
  0.500000  0.444444  0.500000      4.000000
 -0.444444  0.444444  0.500000      2.000000
  0.500000  0.500000  0.500000      1.000000

 Following cartesian coordinates:
            Coordinates               Weight
  0.000000  0.000000  0.000000      1.000000
  0.022519  0.013002  0.000000      4.000000
  0.045037  0.026005  0.000000      4.000000
  0.067556  0.039007  0.000000      4.000000
  0.090075  0.052010  0.000000      4.000000
  0.112593  0.065012  0.000000      4.000000
  0.135112  0.078015  0.000000      4.000000
  0.157631  0.091017  0.000000      4.000000
  0.180149  0.104020  0.000000      4.000000
  0.202668  0.117022  0.000000      2.000000
  0.022520  0.039005  0.000000      2.000000
  0.045038  0.052008  0.000000      4.000000
  0.067557  0.065010  0.000000      4.000000
  0.090076  0.078013  0.000000      4.000000
  0.112594  0.091015  0.000000      4.000000
  0.135113  0.104018  0.000000      4.000000
  0.157632  0.117020  0.000000      4.000000
  0.180150  0.130023  0.000000      4.000000
  0.202669  0.143025  0.000000      4.000000
 -0.180148 -0.078017  0.000000      4.000000
 -0.157629 -0.065015  0.000000      4.000000
 -0.135111 -0.052012  0.000000      4.000000
 -0.112592 -0.039010  0.000000      4.000000
 -0.090073 -0.026007  0.000000      4.000000
 -0.067555 -0.013005  0.000000      4.000000
 -0.045036 -0.000002  0.000000      4.000000
 -0.022517  0.013000  0.000000      2.000000
  0.045040  0.078011  0.000000      2.000000
  0.067558  0.091013  0.000000      4.000000
  0.090077  0.104016  0.000000      4.000000
  0.112596  0.117018  0.000000      4.000000
  0.135114  0.130021  0.000000      4.000000
  0.157633  0.143023  0.000000      4.000000
  0.180152  0.156026  0.000000      4.000000
  0.202670  0.169028  0.000000      4.000000
 -0.180147 -0.052014  0.000000      4.000000
 -0.157628 -0.039012  0.000000      4.000000
 -0.135110 -0.026009  0.000000      4.000000
 -0.112591 -0.013007  0.000000      4.000000
 -0.090072 -0.000004  0.000000      4.000000
 -0.067554  0.012998  0.000000      4.000000
 -0.045035  0.026001  0.000000      2.000000
  0.067559  0.117016  0.000000      2.000000
  0.090078  0.130019  0.000000      4.000000
  0.112597  0.143021  0.000000      4.000000
  0.135115  0.156024  0.000000      4.000000
  0.157634  0.169026  0.000000      4.000000
  0.180153  0.182029  0.000000      4.000000
  0.202671  0.195031  0.000000      4.000000
 -0.180146 -0.026011  0.000000      4.000000
 -0.157627 -0.013009  0.000000      4.000000
 -0.135108 -0.000006  0.000000      4.000000
 -0.112590  0.012996  0.000000      4.000000
 -0.090071  0.025999  0.000000      4.000000
 -0.067552  0.039001  0.000000      2.000000
  0.090079  0.156022  0.000000      2.000000
  0.112598  0.169024  0.000000      4.000000
  0.135117  0.182027  0.000000      4.000000
  0.157635  0.195029  0.000000      4.000000
  0.180154  0.208032  0.000000      4.000000
[...]
  0.157638  0.247035  0.074341      4.000000
  0.180156  0.260038  0.074341      4.000000
  0.202675  0.273040  0.074341      4.000000
 -0.180142  0.051998  0.074341      4.000000
 -0.157623  0.065000  0.074341      4.000000
 -0.135105  0.078003  0.074341      2.000000
  0.157639  0.273038  0.074341      2.000000
  0.180157  0.286041  0.074341      4.000000
  0.202676  0.299043  0.074341      4.000000
 -0.180141  0.078001  0.074341      4.000000
 -0.157622  0.091003  0.074341      2.000000
  0.180159  0.312044  0.074341      2.000000
  0.202677  0.325046  0.074341      4.000000
 -0.180140  0.104004  0.074341      2.000000
  0.202678  0.351049  0.074341      1.000000

 TETIRR: Found   3888 inequivalent tetrahedra from    15552

 I would recommend the setting:
   dimension x,y,z NGX =    20 NGY =   20 NGZ =   54
 SYSTEM =  graphite
 POSCAR =  CIF file

 Startparameter for this run:
   NWRITE =      2    write-flag & timer
   PREC   = accura    normal or accurate (medium, high low for compatibility)
   ISTART =      0    job   : 0-new  1-cont  2-samecut
   ICHARG =      2    charge: 1-file 2-atom 10-const
   ISPIN  =      1    spin polarized calculation?
   LNONCOLLINEAR =      F non collinear calculations
   LSORBIT =      F    spin-orbit coupling
[...]
 k-point 33 :   0.3889 0.1111 0.0000  plane waves:    1193
 k-point 34 :   0.4444 0.1111 0.0000  plane waves:    1197
 k-point 35 :   0.5000 0.1111 0.0000  plane waves:    1191
 k-point 36 :  -0.4444 0.1111 0.0000  plane waves:    1185
 k-point 37 :  -0.3889 0.1111 0.0000  plane waves:    1182
 k-point 38 :  -0.3333 0.1111 0.0000  plane waves:    1179
 k-point 39 :  -0.2778 0.1111 0.0000  plane waves:    1182
 k-point 40 :  -0.2222 0.1111 0.0000  plane waves:    1173
 k-point 41 :  -0.1667 0.1111 0.0000  plane waves:    1176
 k-point 42 :  -0.1111 0.1111 0.0000  plane waves:    1169
 k-point 43 :   0.1667 0.1667 0.0000  plane waves:    1187
 k-point 44 :   0.2222 0.1667 0.0000  plane waves:    1178
 k-point 45 :   0.2778 0.1667 0.0000  plane waves:    1181
 k-point 46 :   0.3333 0.1667 0.0000  plane waves:    1193
 k-point 47 :   0.3889 0.1667 0.0000  plane waves:    1191
 k-point 48 :   0.4444 0.1667 0.0000  plane waves:    1191
 k-point 49 :   0.5000 0.1667 0.0000  plane waves:    1193
 k-point 50 :  -0.4444 0.1667 0.0000  plane waves:    1179
 k-point 51 :  -0.3889 0.1667 0.0000  plane waves:    1178
 k-point 52 :  -0.3333 0.1667 0.0000  plane waves:    1187
 k-point 53 :  -0.2778 0.1667 0.0000  plane waves:    1182
 k-point 54 :  -0.2222 0.1667 0.0000  plane waves:    1183
 k-point 55 :  -0.1667 0.1667 0.0000  plane waves:    1171
 k-point 56 :   0.2222 0.2222 0.0000  plane waves:    1179
 k-point 57 :   0.2778 0.2222 0.0000  plane waves:    1192
 k-point 58 :   0.3333 0.2222 0.0000  plane waves:    1196
 k-point 59 :   0.3889 0.2222 0.0000  plane waves:    1193
 k-point 60 :   0.4444 0.2222 0.0000  plane waves:    1196
[...]
 k-point 85 :   0.5000 0.3889 0.0000  plane waves:    1191
 k-point 86 :  -0.4444 0.3889 0.0000  plane waves:    1186
 k-point 87 :  -0.3889 0.3889 0.0000  plane waves:    1190
 k-point 88 :   0.4444 0.4444 0.0000  plane waves:    1197
 k-point 89 :   0.5000 0.4444 0.0000  plane waves:    1192
 k-point 90 :  -0.4444 0.4444 0.0000  plane waves:    1192
 k-point 91 :   0.5000 0.5000 0.0000  plane waves:    1180
 k-point 92 :   0.0000 0.0000 0.1250  plane waves:    1161
 k-point 93 :   0.0556-0.0000 0.1250  plane waves:    1163
 k-point 94 :   0.1111-0.0000 0.1250  plane waves:    1166
 k-point 95 :   0.1667-0.0000 0.1250  plane waves:    1179
 k-point 96 :   0.2222-0.0000 0.1250  plane waves:    1178
 k-point 97 :   0.2778 0.0000 0.1250  plane waves:    1176
 k-point 98 :   0.3333-0.0000 0.1250  plane waves:    1178
 k-point 99 :   0.3889-0.0000 0.1250  plane waves:    1185
 k-point ** :   0.4444-0.0000 0.1250  plane waves:    1191
 k-point ** :   0.5000-0.0000 0.1250  plane waves:    1186
 k-point ** :   0.0556 0.0556 0.1250  plane waves:    1161
 k-point ** :   0.1111 0.0556 0.1250  plane waves:    1175
 k-point ** :   0.1667 0.0556 0.1250  plane waves:    1179
 k-point ** :   0.2222 0.0556 0.1250  plane waves:    1175
 k-point ** :   0.2778 0.0556 0.1250  plane waves:    1178
 k-point ** :   0.3333 0.0556 0.1250  plane waves:    1184
 k-point ** :   0.3889 0.0556 0.1250  plane waves:    1183
 k-point ** :   0.4444 0.0556 0.1250  plane waves:    1186
 k-point ** :   0.5000 0.0556 0.1250  plane waves:    1186
 k-point ** :  -0.4444 0.0556 0.1250  plane waves:    1183
 k-point ** :  -0.3889 0.0556 0.1250  plane waves:    1184
 k-point ** :  -0.3333 0.0556 0.1250  plane waves:    1178
 k-point ** :  -0.2778 0.0556 0.1250  plane waves:    1175
 k-point ** :  -0.2222 0.0556 0.1250  plane waves:    1179
 k-point ** :  -0.1667 0.0556 0.1250  plane waves:    1175
 k-point ** :  -0.1111 0.0556 0.1250  plane waves:    1161
 k-point ** :  -0.0556 0.0556 0.1250  plane waves:    1164
 k-point ** :   0.1111 0.1111 0.1250  plane waves:    1181
 k-point ** :   0.1667 0.1111 0.1250  plane waves:    1182
 k-point ** :   0.2222 0.1111 0.1250  plane waves:    1179
 k-point ** :   0.2778 0.1111 0.1250  plane waves:    1180
 k-point ** :   0.3333 0.1111 0.1250  plane waves:    1187
 k-point ** :   0.3889 0.1111 0.1250  plane waves:    1189
 k-point ** :   0.4444 0.1111 0.1250  plane waves:    1193
 k-point ** :   0.5000 0.1111 0.1250  plane waves:    1189
 k-point ** :  -0.4444 0.1111 0.1250  plane waves:    1187
 k-point ** :  -0.3889 0.1111 0.1250  plane waves:    1180
 k-point ** :  -0.3333 0.1111 0.1250  plane waves:    1179
 k-point ** :  -0.2778 0.1111 0.1250  plane waves:    1182
 k-point ** :  -0.2222 0.1111 0.1250  plane waves:    1181
 k-point ** :  -0.1667 0.1111 0.1250  plane waves:    1175
 k-point ** :  -0.1111 0.1111 0.1250  plane waves:    1166
 k-point ** :   0.1667 0.1667 0.1250  plane waves:    1178
 k-point ** :   0.2222 0.1667 0.1250  plane waves:    1179
 k-point ** :   0.2778 0.1667 0.1250  plane waves:    1185
 k-point ** :   0.3333 0.1667 0.1250  plane waves:    1197
 k-point ** :   0.3889 0.1667 0.1250  plane waves:    1192
 k-point ** :   0.4444 0.1667 0.1250  plane waves:    1192
 k-point ** :   0.5000 0.1667 0.1250  plane waves:    1197
 k-point ** :  -0.4444 0.1667 0.1250  plane waves:    1185
 k-point ** :  -0.3889 0.1667 0.1250  plane waves:    1179
 k-point ** :  -0.3333 0.1667 0.1250  plane waves:    1179
 k-point ** :  -0.2778 0.1667 0.1250  plane waves:    1182
 k-point ** :  -0.2222 0.1667 0.1250  plane waves:    1179
 k-point ** :  -0.1667 0.1667 0.1250  plane waves:    1178
 k-point ** :   0.2222 0.2222 0.1250  plane waves:    1181
 k-point ** :   0.2778 0.2222 0.1250  plane waves:    1193
 k-point ** :   0.3333 0.2222 0.1250  plane waves:    1197
 k-point ** :   0.3889 0.2222 0.1250  plane waves:    1197
 k-point ** :   0.4444 0.2222 0.1250  plane waves:    1197
 k-point ** :   0.5000 0.2222 0.1250  plane waves:    1193
 k-point ** :  -0.4444 0.2222 0.1250  plane waves:    1181
 k-point ** :  -0.3889 0.2222 0.1250  plane waves:    1178
 k-point ** :  -0.3333 0.2222 0.1250  plane waves:    1179
 k-point ** :  -0.2778 0.2222 0.1250  plane waves:    1175
 k-point ** :  -0.2222 0.2222 0.1250  plane waves:    1178
 k-point ** :   0.2778 0.2778 0.1250  plane waves:    1194
 k-point ** :   0.3333 0.2778 0.1250  plane waves:    1198
[...]
 k-point ** :   0.3889 0.3333 0.5000  plane waves:    1204
 k-point ** :   0.4444 0.3333 0.5000  plane waves:    1198
 k-point ** :   0.5000 0.3333 0.5000  plane waves:    1186
 k-point ** :  -0.4444 0.3333 0.5000  plane waves:    1188
 k-point ** :  -0.3889 0.3333 0.5000  plane waves:    1184
 k-point ** :  -0.3333 0.3333 0.5000  plane waves:    1186
 k-point ** :   0.3889 0.3889 0.5000  plane waves:    1204
 k-point ** :   0.4444 0.3889 0.5000  plane waves:    1196
 k-point ** :   0.5000 0.3889 0.5000  plane waves:    1188
 k-point ** :  -0.4444 0.3889 0.5000  plane waves:    1186
 k-point ** :  -0.3889 0.3889 0.5000  plane waves:    1188
 k-point ** :   0.4444 0.4444 0.5000  plane waves:    1186
 k-point ** :   0.5000 0.4444 0.5000  plane waves:    1180
 k-point ** :  -0.4444 0.4444 0.5000  plane waves:    1182
 k-point ** :   0.5000 0.5000 0.5000  plane waves:    1180

 maximum and minimum number of plane-waves per node :       416      371

 maximum number of plane-waves:      1209
 maximum index in each direction:
   IXMAX=    5   IYMAX=    4   IZMAX=   13
   IXMIN=   -5   IYMIN=   -5   IZMIN=  -13

 WARNING: aliasing errors must be expected set NGX to  22 to avoid them
 NGY is ok and might be reduce to  20
 NGZ is ok and might be reduce to  54
 aliasing errors are usually negligible using standard VASP settings
 and one can safely disregard these warnings

 parallel 3D FFT for wavefunctions:
    minimum data exchange during FFTs selected (reduces bandwidth)
 parallel 3D FFT for charge:
    minimum data exchange during FFTs selected (reduces bandwidth)

 Broyden mixing: mesh for mixing (old mesh)
   NGX =  9   NGY =  9   NGZ = 27
  (NGX  = 40   NGY  = 40   NGZ  =108)
  gives a total of   2187 points

 initial charge density was supplied:
 charge density of overlapping atoms calculated
 number of electron      16.0000000 magnetization
 keeping initial charge density in first step

 Maximum index for augmentation-charges         1323 (set IRDMAX)

 First call to EWALD:  gamma=   0.540
 Maximum number of real-space cells 4x 4x 2
 Maximum number of reciprocal cells 2x 2x 5

 FEWALD executed in parallel

----------------------------------------- Iteration    1(   1)  ---------------------------------------

 BZINTS: Fermi energy: 13.963170; 16.000000 electrons
         Band energy: -11.233486;  BLOECHL correction: -0.514954

 eigenvalue-minimisations  : 10928
 total energy-change (2. order) : 0.5618413E+02  (-0.9011587E+03)
 number of electron      16.0000000 magnetization
 augmentation part       16.0000000 magnetization

 Free energy of the ion-electron system (eV)
  alpha Z        PSCENC =        36.77313024
  Ewald energy   TEWEN  =      -459.33697017
  -Hartree energ DENC   =      -149.38795299
  -exchange      EXHF   =         0.00000000
  -V(xc)+E(xc)   XCENC  =        55.37017804
  PAW double counting   =       151.32577238     -155.92769107
  entropy T*S    EENTRO =         0.00000000
  eigenvalues    EBANDS =       -11.23348626
  atomic energy  EATOM  =       588.60115103
  free energy    TOTEN  =        56.18413121 eV

  energy without entropy =       56.18413121  energy(sigma->0) =       56.18413121

[...]

 BZINTS: Fermi energy:  3.500576; 16.000000 electrons
         Band energy:-102.431318;  BLOECHL correction: -0.000325

 eigenvalue-minimisations  : 15488
 total energy-change (2. order) :-0.9119783E+02  (-0.8398630E+02)
 number of electron      16.0000000 magnetization
 augmentation part       16.0000000 magnetization

[...]

 BZINTS: Fermi energy:  3.153244; 16.000000 electrons
         Band energy:-106.614965;  BLOECHL correction: -0.000031

[...]

 Broyden mixing:
  rms(total) = 0.77926E+00    rms(broyden)= 0.77917E+00
  rms(prec ) = 0.12510E+01
  weight for this iteration     100.00

[...]

 eigenvalues of (default mixing * dielectric matrix)
  average eigenvalue GAMMA=   2.0349
  2.0349

[...]

 eigenvalue-minimisations  : 13012
 total energy-change (2. order) : 0.5705892E+00  (-0.1852022E+00)
 number of electron      16.0000001 magnetization
 augmentation part        0.3846593 magnetization

[...]

 Broyden mixing:
  rms(total) = 0.17497E-03    rms(broyden)= 0.17485E-03
  rms(prec ) = 0.30628E-03
  weight for this iteration     100.00

 eigenvalues of (default mixing * dielectric matrix)
  average eigenvalue GAMMA=   1.9292
  2.9413  2.3636  2.3636  1.9481  0.9794  0.9794

[...]

----------------------------------------- Iteration    1(  12)  ---------------------------------------

 BZINTS: Fermi energy:  4.643612; 16.000000 electrons
         Band energy: -71.214000;  BLOECHL correction: -0.000055

 eigenvalue-minimisations  :  9392
 total energy-change (2. order) :-0.1970564E-06  (-0.7662868E-07)
 number of electron      16.0000001 magnetization
 augmentation part        0.3830172 magnetization

 Free energy of the ion-electron system (eV)
  alpha Z        PSCENC =        36.77313024
  Ewald energy   TEWEN  =      -459.33697017
  -Hartree energ DENC   =      -184.11735709
  -exchange      EXHF   =         0.00000000
  -V(xc)+E(xc)   XCENC  =        57.62233570
  PAW double counting   =       277.42131093     -282.58510349
  entropy T*S    EENTRO =         0.00000000
  eigenvalues    EBANDS =       -71.21399984
  atomic energy  EATOM  =       588.60115103
  free energy    TOTEN  =       -36.83550269 eV

  energy without entropy =      -36.83550269  energy(sigma->0) =      -36.83550269

 average (electrostatic) potential at core
  the test charge radii are     0.6991
  (the norm of the test charge is              1.0000)
       1 -50.7558       2 -50.7558       3 -50.7281       4 -50.7281

 E-fermi :   4.6436     XC(G=0): -10.2840     alpha+bet :-11.3268

 k-point     1 :       0.0000    0.0000    0.0000
  band No.  band energies     occupation
      1     -14.9693      2.00000
      2     -14.6745      2.00000
      3      -3.8329      2.00000
      4      -1.8899      2.00000
      5       1.6466      2.00000
      6       1.6512      2.00000
      7       1.6646      2.00000
      8       1.6693      2.00000
      9       8.9385      0.00000
     10      12.9701      0.00000
     11      12.9755      0.00000
     12      13.0233      0.00000

[...]

 k-point   455 :       0.5000    0.5000    0.5000
  band No.  band energies     occupation
      1      -9.5874      2.00000
      2      -9.5874      2.00000
      3      -8.5397      2.00000
      4      -8.5397      2.00000
      5      -1.7142      2.00000
      6      -1.7142      2.00000
      7       2.2984      2.00000
      8       2.2984      2.00000
      9       6.3042      0.00000
     10       6.3042      0.00000
     11      12.0403      0.00000
     12      12.0403      0.00000

 soft charge-density along one line, spin component           1
         0         1         2         3         4         5         6         7         8         9
 total charge-density along one line

------------------------ aborting loop because EDIFF is reached ----------------------------------------

         DFTD3 V3.0 Rev 1
 IVDW         = 11
 DF pbe
 parameters
 VDW_S6       =    1.0000
 VDW_S8       =    0.7220
 VDW_SR       =    1.2170
 rs18     =    1.0000
 alpha6   =   14.0000
 alpha8   =   16.0000
 k1-k3    =   16.0000    1.3333   -4.0000
 VDW_RADIUS   =   50.2022 A
 VDW_CNRADIUS =   21.1671 A
 Edisp (eV)   -0.38224

 E6    (eV) :    -0.2395
 E8    (eV) :    -0.1427
 % E8        : 37.33

  FORCE on cell =-STRESS in cart. coord.  units (eV):
  Direction    XX          YY          ZZ          XY          YZ          ZX
  Alpha Z    36.77313    36.77313    36.77313
  Ewald      78.34932    78.29946  -615.98608    -0.04319    -0.00000    -0.00000
  Hartree   161.55348   161.54675  -138.98113    -0.00583    -0.00000    -0.00000
  E(xc)     -58.43605   -58.43637   -60.57734    -0.00027     0.00000     0.00000
  Local    -442.83737  -442.78925   518.40364     0.04167    -0.00000    -0.00000
  n-local   -14.41498   -13.65601   -12.82616    -0.22129     0.01034    -0.01038
  augment    -1.54395    -1.54387    -1.41551     0.00007     0.00000    -0.00000
  Kinetic   243.80443   236.42515   275.29954     2.14392    -0.14064     0.13678
  Fock        0.00000     0.00000     0.00000     0.00000     0.00000     0.00000
  vdW        -0.06826    -0.06818    -0.52058     0.00007    -0.00000     0.00000
  Total      -0.13539    -0.13406     0.16951     0.00116     0.00000    -0.00000
  in kB      -6.11871    -6.05836     7.66066     0.05226     0.00000    -0.00000

 VOLUME and BASIS-vectors are now :
  energy-cutoff  :      600.00
  volume of cell :       35.45
      direct lattice vectors                 reciprocal lattice vectors
     2.467155442 -0.000111200  0.000000000     0.405335638  0.234045000  0.000000000
    -1.233674023  2.136563688  0.000000000     0.000021096  0.468053460  0.000000000
     0.000000000  0.000000000  6.725742312     0.000000000  0.000000000  0.148682473

  length of vectors
     2.467155445  2.467155445  6.725742312     0.468053460  0.468053460  0.148682473

 FORCES acting on ions
    electron-ion (+dipol)            ewald-force                    non-local-force                 convergence-correction
   -.425E-03 0.233E-03 0.278E-12   -.267E-02 0.152E-02 -.182E-13   -.216E-02 0.125E-02 0.434E-18   0.145E-05 -.835E-06 0.141E-13
   0.415E-03 -.251E-03 0.210E-12   0.265E-02 -.155E-02 0.182E-13   0.216E-02 -.125E-02 -.434E-18   -.145E-05 0.834E-06 0.253E-14
   -.208E-02 0.121E-02 0.790E-13   0.269E-02 -.154E-02 -.182E-13   0.967E-03 -.558E-03 0.000E+00   -.126E-05 0.727E-06 0.103E-13
   0.209E-02 -.120E-02 -.101E-12   -.268E-02 0.156E-02 0.182E-13   -.967E-03 0.558E-03 0.000E+00   0.126E-05 -.727E-06 0.275E-14
   -.678E-05 -.117E-04 0.466E-12   -.202E-14 0.248E-14 0.000E+00   0.000E+00 0.555E-16 0.000E+00   -.105E-09 -.182E-09 0.297E-13

 POSITION                                       TOTAL-FORCE (eV/Angst)
      2.46715     -0.00011      1.68144        -0.005237      0.003024     -0.000000
     -1.23367      2.13656      5.04431         0.005237     -0.003024     -0.000000
     -0.00019      1.42441      1.68144         0.001565     -0.000904     -0.000000
      1.23367      0.71204      5.04431        -0.001565      0.000904      0.000000
    total drift:                               -0.000007     -0.000012      0.000000

  FREE ENERGIE OF THE ION-ELECTRON SYSTEM (eV)
  free  energy   TOTEN  =       -37.21774314 eV

  energy  without entropy=      -37.21774314  energy(sigma->0) =      -37.21774314

 reached required accuracy - stopping structural energy minimisation
 BZINTS: Fermi energy:  4.643612; 16.000000 electrons
         Band energy: -71.214000;  BLOECHL correction: -0.000055