 vasp.5.3.5 31Mar14 (build Nov 02 2014 15:17:37) complex

 executed on        ion-Intel-MKL date 2016.08.27  00:08:23

 INCAR:
 POTCAR:   PAW_PBE C 08Apr2002
 POTCAR:   PAW_PBE C 08Apr2002
   VRHFIN =C: s2p2

   TITEL  = PAW_PBE C 08Apr2002
   POMASS =   12.011; ZVAL   =    4.000    mass and valenz
   ENMAX  =  400.000; ENMIN  =  300.000 eV
   QCUT   =   -5.516; QGAM   =   11.032    optimization parameters

   Description
     l     E      TYP  RCUT    TYP  RCUT
     0   .000     23  1.200
     0   .000     23  1.200
     1   .000     23  1.500
     1  2.500     23  1.500
     2   .000      7  1.500

 PAW_PBE C 08Apr2002                    :

 POSCAR: CIF file
  positions in direct lattice
  velocities in cartesian coordinates
 exchange correlation table for  LEXCH =        8
   RHO(1)=    0.500       N(1)  =     2000
   RHO(2)=  100.500       N(2)  =     4000

 ion  position               nearest neighbor table
   1  0.999  0.001  0.250-   3 1.42   3 1.42   3 1.42   2 1.82   2 1.82
   2  0.001  0.999  0.750-   4 1.42   4 1.42   4 1.42   1 1.82   1 1.82
   3  0.333  0.667  0.250-   1 1.42   1 1.42   1 1.42
   4  0.667  0.333  0.750-   2 1.42   2 1.42   2 1.42

  LATTYP: Found a base centered orthorhombic cell.
 ALAT       =     2.4647750986
 B/A-ratio  =     1.7336081796
 C/A-ratio  =     1.4798359909

  Lattice vectors:

 A1 = (   2.4664372490,  -0.0009596430,   0.0000000000)
 A2 = (  -1.2340496996,   2.1355174929,   0.0000000000)
 A3 = (   0.0000000000,   0.0000000000,   3.6474629005)

Analysis of symmetry for initial positions (statically):
 Subroutine PRICEL returns:
 Original cell was already a primitive cell.

 Routine SETGRP: Setting up the symmetry group for a
 base centered orthorhombic supercell.

 Subroutine GETGRP returns: Found  8 space group operations
 (whereof  4 operations were pure point group operations)
 out of a pool of  8 trial point group operations.

The static configuration has the point symmetry C_2h.
 The point group associated with its full space group is D_2h.

Analysis of symmetry for dynamics (positions and initial velocities):
 Subroutine PRICEL returns:
 Original cell was already a primitive cell.

 Routine SETGRP: Setting up the symmetry group for a
 base centered orthorhombic supercell.

 Subroutine GETGRP returns: Found  8 space group operations
 (whereof  4 operations were pure point group operations)
 out of a pool of  8 trial point group operations.

The dynamic configuration has the point symmetry C_2h.
 The point group associated with its full space group is D_2h.

 KPOINTS: B4C B11C-CBC

Automatic generation of k-mesh.
Space group operators:
 irot       det(A)        alpha          n_x          n_y          n_z        tau_x        tau_y        tau_z
    1     1.000000     0.000000     1.000000     0.000000     0.000000     0.000000     0.000000     0.000000
    2    -1.000000     0.000000     1.000000     0.000000     0.000000     0.000000     0.000000     0.000000
    3     1.000000   180.000000    -0.500000    -0.866025     0.000000     0.000000     0.000000     0.000000
    4    -1.000000   180.000000    -0.500000    -0.866025     0.000000     0.000000     0.000000     0.000000
    5     1.000000   180.000000     0.000000     0.000000     1.000000     0.000000     0.000000     0.500000
    6    -1.000000   180.000000     0.000000     0.000000     1.000000     0.000000     0.000000     0.500000
    7     1.000000   180.000000     0.866025    -0.500000     0.000000     0.000000     0.000000     0.500000
    8    -1.000000   180.000000     0.866025    -0.500000     0.000000     0.000000     0.000000     0.500000

 Subroutine IBZKPT returns following result:

 Found    455 irreducible k-points:

 Following reciprocal coordinates:
            Coordinates               Weight
  0.000000  0.000000  0.000000      1.000000
  0.055556 -0.000000  0.000000      4.000000
  0.111111 -0.000000  0.000000      4.000000
  0.166667 -0.000000  0.000000      4.000000
  0.222222 -0.000000  0.000000      4.000000
  0.277778 -0.000000  0.000000      4.000000
  0.333333 -0.000000  0.000000      4.000000
  0.388889 -0.000000  0.000000      4.000000
  0.444444 -0.000000  0.000000      4.000000
  0.500000 -0.000000  0.000000      2.000000
  0.055556  0.055556  0.000000      2.000000
  0.111111  0.055556  0.000000      4.000000
  0.166667  0.055556  0.000000      4.000000
  0.222222  0.055556  0.000000      4.000000
  0.277778  0.055556  0.000000      4.000000
  0.333333  0.055556  0.000000      4.000000
  0.388889  0.055556  0.000000      4.000000
  0.444444  0.055556  0.000000      4.000000
  0.500000  0.055556  0.000000      4.000000
 -0.444444  0.055556  0.000000      4.000000
 -0.388889  0.055556  0.000000      4.000000
 -0.333333  0.055556  0.000000      4.000000
 -0.277778  0.055556  0.000000      4.000000
 -0.222222  0.055556  0.000000      4.000000
 -0.166667  0.055556  0.000000      4.000000
 -0.111111  0.055556  0.000000      4.000000
 -0.055556  0.055556  0.000000      2.000000
  0.111111  0.111111  0.000000      2.000000
  0.166667  0.111111  0.000000      4.000000
  0.222222  0.111111  0.000000      4.000000
  0.277778  0.111111  0.000000      4.000000
  0.333333  0.111111  0.000000      4.000000
  0.388889  0.111111  0.000000      4.000000
  0.444444  0.111111  0.000000      4.000000
  0.500000  0.111111  0.000000      4.000000
 -0.444444  0.111111  0.000000      4.000000
 -0.388889  0.111111  0.000000      4.000000
 -0.333333  0.111111  0.000000      4.000000
 -0.277778  0.111111  0.000000      4.000000
 -0.222222  0.111111  0.000000      4.000000
 -0.166667  0.111111  0.000000      4.000000
 -0.111111  0.111111  0.000000      2.000000
  0.166667  0.166667  0.000000      2.000000
  0.222222  0.166667  0.000000      4.000000
  0.277778  0.166667  0.000000      4.000000
  0.333333  0.166667  0.000000      4.000000
  0.388889  0.166667  0.000000      4.000000
  0.444444  0.166667  0.000000      4.000000
  0.500000  0.166667  0.000000      4.000000
 -0.444444  0.166667  0.000000      4.000000
 -0.388889  0.166667  0.000000      4.000000
 -0.333333  0.166667  0.000000      4.000000
 -0.277778  0.166667  0.000000      4.000000
 -0.222222  0.166667  0.000000      4.000000
 -0.166667  0.166667  0.000000      2.000000
  0.222222  0.222222  0.000000      2.000000
  0.277778  0.222222  0.000000      4.000000
  0.333333  0.222222  0.000000      4.000000
  0.388889  0.222222  0.000000      4.000000
  0.444444  0.222222  0.000000      4.000000
[...]
  0.388889  0.333333  0.500000      4.000000
  0.444444  0.333333  0.500000      4.000000
  0.500000  0.333333  0.500000      4.000000
 -0.444444  0.333333  0.500000      4.000000
 -0.388889  0.333333  0.500000      4.000000
 -0.333333  0.333333  0.500000      2.000000
  0.388889  0.388889  0.500000      2.000000
  0.444444  0.388889  0.500000      4.000000
  0.500000  0.388889  0.500000      4.000000
 -0.444444  0.388889  0.500000      4.000000
 -0.388889  0.388889  0.500000      2.000000
  0.444444  0.444444  0.500000      2.000000
  0.500000  0.444444  0.500000      4.000000
 -0.444444  0.444444  0.500000      2.000000
  0.500000  0.500000  0.500000      1.000000

 Following cartesian coordinates:
            Coordinates               Weight
  0.000000  0.000000  0.000000      1.000000
  0.022530  0.013019  0.000000      4.000000
  0.045059  0.026038  0.000000      4.000000
  0.067589  0.039058  0.000000      4.000000
  0.090119  0.052077  0.000000      4.000000
  0.112648  0.065096  0.000000      4.000000
  0.135178  0.078115  0.000000      4.000000
  0.157708  0.091134  0.000000      4.000000
  0.180237  0.104154  0.000000      4.000000
  0.202767  0.117173  0.000000      2.000000
  0.022540  0.039040  0.000000      2.000000
  0.045069  0.052059  0.000000      4.000000
  0.067599  0.065079  0.000000      4.000000
  0.090129  0.078098  0.000000      4.000000
  0.112659  0.091117  0.000000      4.000000
  0.135188  0.104136  0.000000      4.000000
  0.157718  0.117155  0.000000      4.000000
  0.180248  0.130175  0.000000      4.000000
  0.202777  0.143194  0.000000      4.000000
 -0.180227 -0.078133  0.000000      4.000000
 -0.157698 -0.065114  0.000000      4.000000
 -0.135168 -0.052094  0.000000      4.000000
 -0.112638 -0.039075  0.000000      4.000000
 -0.090109 -0.026056  0.000000      4.000000
 -0.067579 -0.013037  0.000000      4.000000
 -0.045049 -0.000018  0.000000      4.000000
 -0.022520  0.013002  0.000000      2.000000
  0.045080  0.078080  0.000000      2.000000
  0.067609  0.091099  0.000000      4.000000
  0.090139  0.104119  0.000000      4.000000
  0.112669  0.117138  0.000000      4.000000
  0.135198  0.130157  0.000000      4.000000
  0.157728  0.143176  0.000000      4.000000
  0.180258  0.156195  0.000000      4.000000
  0.202787  0.169215  0.000000      4.000000
 -0.180217 -0.052112  0.000000      4.000000
 -0.157688 -0.039093  0.000000      4.000000
 -0.135158 -0.026073  0.000000      4.000000
 -0.112628 -0.013054  0.000000      4.000000
 -0.090098 -0.000035  0.000000      4.000000
 -0.067569  0.012984  0.000000      4.000000
 -0.045039  0.026003  0.000000      2.000000
  0.067619  0.117120  0.000000      2.000000
  0.090149  0.130139  0.000000      4.000000
  0.112679  0.143159  0.000000      4.000000
  0.135208  0.156178  0.000000      4.000000
  0.157738  0.169197  0.000000      4.000000
  0.180268  0.182216  0.000000      4.000000
  0.202798  0.195236  0.000000      4.000000
 -0.180207 -0.026091  0.000000      4.000000
 -0.157677 -0.013072  0.000000      4.000000
 -0.135148 -0.000053  0.000000      4.000000
 -0.112618  0.012967  0.000000      4.000000
 -0.090088  0.025986  0.000000      4.000000
 -0.067559  0.039005  0.000000      2.000000
  0.090159  0.156160  0.000000      2.000000
  0.112689  0.169180  0.000000      4.000000
  0.135219  0.182199  0.000000      4.000000
  0.157748  0.195218  0.000000      4.000000
  0.180278  0.208237  0.000000      4.000000
[...]
  0.157769  0.247260  0.137082      4.000000
  0.180298  0.260279  0.137082      4.000000
  0.202828  0.273298  0.137082      4.000000
 -0.180177  0.051972  0.137082      4.000000
 -0.157647  0.064991  0.137082      4.000000
 -0.135117  0.078010  0.137082      2.000000
  0.157779  0.273281  0.137082      2.000000
  0.180308  0.286300  0.137082      4.000000
  0.202838  0.299319  0.137082      4.000000
 -0.180167  0.077993  0.137082      4.000000
 -0.157637  0.091012  0.137082      2.000000
  0.180318  0.312321  0.137082      2.000000
  0.202848  0.325340  0.137082      4.000000
 -0.180156  0.104013  0.137082      2.000000
  0.202858  0.351361  0.137082      1.000000

 TETIRR: Found   3888 inequivalent tetrahedra from    15552

 I would recommend the setting:
   dimension x,y,z NGX =    20 NGY =   20 NGZ =   29
 SYSTEM =  graphite
 POSCAR =  CIF file

 Startparameter for this run:
   NWRITE =      2    write-flag & timer
   PREC   = accura    normal or accurate (medium, high low for compatibility)
   ISTART =      0    job   : 0-new  1-cont  2-samecut
   ICHARG =      2    charge: 1-file 2-atom 10-const
   ISPIN  =      1    spin polarized calculation?
   LNONCOLLINEAR =      F non collinear calculations
[...]
 k-point ** :  -0.3333 0.1111 0.1250  plane waves:     639
 k-point ** :  -0.2778 0.1111 0.1250  plane waves:     638
 k-point ** :  -0.2222 0.1111 0.1250  plane waves:     637
 k-point ** :  -0.1667 0.1111 0.1250  plane waves:     632
 k-point ** :  -0.1111 0.1111 0.1250  plane waves:     627
 k-point ** :   0.1667 0.1667 0.1250  plane waves:     639
 k-point ** :   0.2222 0.1667 0.1250  plane waves:     638
 k-point ** :   0.2778 0.1667 0.1250  plane waves:     641
 k-point ** :   0.3333 0.1667 0.1250  plane waves:     644
 k-point ** :   0.3889 0.1667 0.1250  plane waves:     646
 k-point ** :   0.4444 0.1667 0.1250  plane waves:     645
 k-point ** :   0.5000 0.1667 0.1250  plane waves:     645
 k-point ** :  -0.4444 0.1667 0.1250  plane waves:     641
 k-point ** :  -0.3889 0.1667 0.1250  plane waves:     638
 k-point ** :  -0.3333 0.1667 0.1250  plane waves:     639
 k-point ** :  -0.2778 0.1667 0.1250  plane waves:     638
 k-point ** :  -0.2222 0.1667 0.1250  plane waves:     639
 k-point ** :  -0.1667 0.1667 0.1250  plane waves:     637
 k-point ** :   0.2222 0.2222 0.1250  plane waves:     641
 k-point ** :   0.2778 0.2222 0.1250  plane waves:     643
 k-point ** :   0.3333 0.2222 0.1250  plane waves:     646
 k-point ** :   0.3889 0.2222 0.1250  plane waves:     653
 k-point ** :   0.4444 0.2222 0.1250  plane waves:     646
 k-point ** :   0.5000 0.2222 0.1250  plane waves:     644
 k-point ** :  -0.4444 0.2222 0.1250  plane waves:     641
 k-point ** :  -0.3889 0.2222 0.1250  plane waves:     639
 k-point ** :  -0.3333 0.2222 0.1250  plane waves:     639
 k-point ** :  -0.2778 0.2222 0.1250  plane waves:     637
 k-point ** :  -0.2222 0.2222 0.1250  plane waves:     639
 k-point ** :   0.2778 0.2778 0.1250  plane waves:     648
 k-point ** :   0.3333 0.2778 0.1250  plane waves:     653
[...]
 k-point ** :   0.3889 0.3333 0.5000  plane waves:     642
 k-point ** :   0.4444 0.3333 0.5000  plane waves:     648
 k-point ** :   0.5000 0.3333 0.5000  plane waves:     646
 k-point ** :  -0.4444 0.3333 0.5000  plane waves:     642
 k-point ** :  -0.3889 0.3333 0.5000  plane waves:     640
 k-point ** :  -0.3333 0.3333 0.5000  plane waves:     638
 k-point ** :   0.3889 0.3889 0.5000  plane waves:     648
 k-point ** :   0.4444 0.3889 0.5000  plane waves:     642
 k-point ** :   0.5000 0.3889 0.5000  plane waves:     648
 k-point ** :  -0.4444 0.3889 0.5000  plane waves:     640
 k-point ** :  -0.3889 0.3889 0.5000  plane waves:     644
 k-point ** :   0.4444 0.4444 0.5000  plane waves:     642
 k-point ** :   0.5000 0.4444 0.5000  plane waves:     644
 k-point ** :  -0.4444 0.4444 0.5000  plane waves:     640
 k-point ** :   0.5000 0.5000 0.5000  plane waves:     644

 maximum and minimum number of plane-waves per node :       237      188

 maximum number of plane-waves:       663
 maximum index in each direction:
   IXMAX=    5   IYMAX=    4   IZMAX=    7
   IXMIN=   -5   IYMIN=   -5   IZMIN=   -7

 WARNING: aliasing errors must be expected set NGX to  22 to avoid them
 NGY is ok and might be reduce to  20
 NGZ is ok and might be reduce to  30
 aliasing errors are usually negligible using standard VASP settings
 and one can safely disregard these warnings

 parallel 3D FFT for wavefunctions:
    minimum data exchange during FFTs selected (reduces bandwidth)
 parallel 3D FFT for charge:
    minimum data exchange during FFTs selected (reduces bandwidth)

 Broyden mixing: mesh for mixing (old mesh)
   NGX =  9   NGY =  9   NGZ = 15
  (NGX  = 40   NGY  = 40   NGZ  = 60)
  gives a total of   1215 points

 initial charge density was supplied:
 charge density of overlapping atoms calculated
 number of electron      16.0000000 magnetization
 keeping initial charge density in first step

 Maximum index for augmentation-charges         1359 (set IRDMAX)

 First call to EWALD:  gamma=   0.662
 Maximum number of real-space cells 3x 3x 2
 Maximum number of reciprocal cells 3x 3x 4

 FEWALD executed in parallel

----------------------------------------- Iteration    1(   1)  ---------------------------------------

 BZINTS: Fermi energy: 21.597057; 16.000000 electrons
         Band energy:  95.846656;  BLOECHL correction: -0.574728

 eigenvalue-minimisations  : 10968
 total energy-change (2. order) : 0.3864881E+02  (-0.9718176E+03)
 number of electron      16.0000000 magnetization
 augmentation part       16.0000000 magnetization

 Free energy of the ion-electron system (eV)
  alpha Z        PSCENC =        67.87431298
  Ewald energy   TEWEN  =      -743.67211691
  -Hartree energ DENC   =       -24.59559893
  -exchange      EXHF   =         0.00000000
  -V(xc)+E(xc)   XCENC  =        59.19632467
  PAW double counting   =       151.32577238     -155.92769107
  entropy T*S    EENTRO =         0.00000000
  eigenvalues    EBANDS =        95.84665619
  atomic energy  EATOM  =       588.60115103
  free energy    TOTEN  =        38.64881035 eV

  energy without entropy =       38.64881035  energy(sigma->0) =       38.64881035

[...]

 eigenvalue-minimisations  : 14744
 total energy-change (2. order) :-0.6713342E+02  (-0.6020693E+02)
 number of electron      16.0000000 magnetization
 augmentation part       16.0000000 magnetization

[...]

 Broyden mixing:
  rms(total) = 0.77083E+00    rms(broyden)= 0.77074E+00
  rms(prec ) = 0.16934E+01
  weight for this iteration     100.00

[...]

 eigenvalues of (default mixing * dielectric matrix)
  average eigenvalue GAMMA=   2.0984
  2.0984

[...]

 average (electrostatic) potential at core
  the test charge radii are     0.6991
  (the norm of the test charge is              1.0000)
       1 -43.5635       2 -43.5635       3 -42.7736       4 -42.7736

 E-fermi :  14.0496     XC(G=0): -14.2538     alpha+bet :-20.9066

 k-point     1 :       0.0000    0.0000    0.0000
  band No.  band energies     occupation
      1     -11.4822      2.00000
      2      -3.4163      2.00000
      3      -1.3267      2.00000
      4       7.7113      2.00000
      5       7.7504      2.00000
      6       9.4898      2.00000
      7       9.5029      2.00000
      8      15.9981      0.00000
      9      19.1744      0.00000
     10      19.2174      0.00000
     11      19.6829      0.00000
     12      20.6488      0.00000

[...]

 soft charge-density along one line, spin component           1
         0         1         2         3         4         5         6         7         8         9
 total charge-density along one line

------------------------ aborting loop because EDIFF is reached ----------------------------------------

         DFTD3 V3.0 Rev 1
 IVDW         = 12
 DF pbe
 parameters
 VDW_S6       =    1.0000
 VDW_S8       =    0.7875
 VDW_A1       =    0.4289
 VDW_A2       =    4.4407
 k1-k3        =   16.0000    1.3333   -4.0000
 VDW_RADIUS   =   50.2022 A
 VDW_CNRADIUS =   21.1671 A
 Edisp (eV)   -0.90353

 E6    (eV) :    -0.6440
 E8    (eV) :    -0.2596
 % E8        : 28.73

  FORCE on cell =-STRESS in cart. coord.  units (eV):
  Direction    XX          YY          ZZ          XY          YZ          ZX
  Alpha Z    67.87431    67.87431    67.87431
  Ewald    -198.80525  -198.98463  -345.88304    -0.15535     0.00000    -0.00000
  Hartree    19.38027    19.33577     1.50788    -0.03854    -0.00000    -0.00000
  E(xc)     -61.39148   -61.39217   -61.83203    -0.00060     0.00000     0.00000
  Local     -60.39280   -60.18813    86.19721     0.17725     0.00000    -0.00000
  n-local   -13.48010   -12.47305   -17.02654    -0.30431    -0.15585     0.26144
  augment    -1.64851    -1.64839    -1.51107     0.00010     0.00000     0.00000
  Kinetic   253.57621   250.47985   306.83003     0.95991     1.30630    -2.09867
  Fock        0.00000     0.00000     0.00000     0.00000     0.00000     0.00000
  vdW        -0.91259    -0.91255    -0.91508     0.00003    -0.00000     0.00000
  Total       3.13270     3.15838    35.24167     0.02224     0.00000     0.00000
  in kB     261.31399   263.45644  2939.68368     1.85542     0.00000     0.00000

 VOLUME and BASIS-vectors are now :
  energy-cutoff  :      600.00
  volume of cell :       19.21
      direct lattice vectors                 reciprocal lattice vectors
     2.466437249 -0.000959643  0.000000000     0.405534294  0.234345762  0.000000000
    -1.234049700  2.135517493  0.000000000     0.000182236  0.468375882  0.000000000
     0.000000000  0.000000000  3.647462900     0.000000000  0.000000000  0.274163172

[...]

 FORCES acting on ions
    electron-ion (+dipol)            ewald-force                    non-local-force                 convergence-correction
   -.472E-01 0.272E-01 0.334E-12   0.332E-01 -.192E-01 -.701E-14   -.142E-01 0.823E-02 -.139E-16   -.135E-05 0.777E-06 0.146E-13
   0.472E-01 -.273E-01 0.146E-12   -.332E-01 0.192E-01 0.649E-14   0.142E-01 -.823E-02 0.416E-16   0.135E-05 -.777E-06 -.156E-13
   0.131E-01 -.759E-02 0.777E-12   0.621E-02 -.357E-02 -.711E-14   0.574E-02 -.331E-02 -.139E-16   0.422E-05 -.244E-05 0.101E-13
   -.131E-01 0.759E-02 -.377E-12   -.619E-02 0.359E-02 0.763E-14   -.574E-02 0.331E-02 0.139E-16   -.422E-05 0.244E-05 -.126E-13
   -.779E-05 -.135E-04 0.880E-12   -.277E-14 -.885E-15 0.000E+00   -.111E-15 0.555E-16 0.278E-16   0.854E-10 0.148E-09 -.345E-14

 POSITION                                       TOTAL-FORCE (eV/Angst)
      2.46402      0.00044      0.91187        -0.028221      0.016294     -0.000000
     -1.23163      2.13412      2.73560         0.028221     -0.016294      0.000000
     -0.00332      1.42496      0.91187         0.025068     -0.014473     -0.000000
      1.23571      0.70960      2.73560        -0.025068      0.014473      0.000000
    total drift:                               -0.000008     -0.000013      0.000000

  FREE ENERGIE OF THE ION-ELECTRON SYSTEM (eV)
  free  energy   TOTEN  =       -30.13681261 eV

  energy  without entropy=      -30.13681261  energy(sigma->0) =      -30.13681261

[...]

         DFTD3 V3.0 Rev 1
 Edisp (eV)   -0.90353

[...]

 d Force =-0.2699664E-03[-0.723E-03, 0.183E-03]  d Energy =-0.2309204E-03-0.390E-04
 d Force =-0.1585948E-02[-0.307E-02,-0.101E-03]  d Ewald  =-0.1588517E-02 0.257E-05

 Steepest descent step on ions:
 trial-energy change:    0.000231  1 .order    0.000270   -0.000183    0.000723
  (g-gl).g = 0.183E-03      g.g   = 0.183E-03  gl.gl    = 0.000E+00
 g(Force)  = 0.183E-03   g(Stress)= 0.000E+00 ortho     = 0.000E+00
 gamma     =   0.00000
 trial     =   1.00000
 opt step  =   0.25075  (harmonic =   0.20220) maximal distance =0.00034139
 next E    =   -30.136836   (d E  =  -0.00002)

 FEWALD executed in parallel

[...]

 eigenvalue-minimisations  : 13264
 total energy-change (2. order) :-0.1035949E-06  (-0.1782176E-04)
 number of electron      16.0000001 magnetization
 augmentation part        0.3981635 magnetization

[...]

 Broyden mixing:
  rms(total) = 0.30705E-03    rms(broyden)= 0.30690E-03
  rms(prec ) = 0.74245E-03
  weight for this iteration     100.00

 eigenvalues of (default mixing * dielectric matrix)
  average eigenvalue GAMMA=   1.5699
  1.1655  1.9743

[...]

----------------------------------------- Iteration    3(   4)  ---------------------------------------

 BZINTS: Fermi energy: 14.049549; 16.000000 electrons
         Band energy:  42.718299;  BLOECHL correction: -0.048284

 eigenvalue-minimisations  : 11504
 total energy-change (2. order) : 0.3188006E-08  (-0.3144802E-06)
 number of electron      16.0000001 magnetization
 augmentation part        0.3981645 magnetization

 Free energy of the ion-electron system (eV)
  alpha Z        PSCENC =        67.87431298
  Ewald energy   TEWEN  =      -743.67199790
  -Hartree energ DENC   =       -40.22387579
  -exchange      EXHF   =         0.00000000
  -V(xc)+E(xc)   XCENC  =        60.75730245
  PAW double counting   =       296.18561445     -301.47411064
  entropy T*S    EENTRO =         0.00000000
  eigenvalues    EBANDS =        42.71829870
  atomic energy  EATOM  =       588.60115103
  free energy    TOTEN  =       -29.23330472 eV

  energy without entropy =      -29.23330472  energy(sigma->0) =      -29.23330472

 average (electrostatic) potential at core
  the test charge radii are     0.6991
  (the norm of the test charge is              1.0000)
       1 -43.5635       2 -43.5635       3 -42.7737       4 -42.7737

 E-fermi :  14.0495     XC(G=0): -14.2538     alpha+bet :-20.9066

[...]

 k-point   455 :       0.5000    0.5000    0.5000
  band No.  band energies     occupation
      1      -3.6824      2.00000
      2      -3.6824      2.00000
      3      -2.4308      2.00000
      4      -2.4308      2.00000
      5       5.1604      2.00000
      6       5.1604      2.00000
      7      12.2177      2.00000
      8      12.2177      2.00000
      9      13.6837      1.97051
     10      13.6837      1.17807
     11      20.4613      0.00000
     12      20.4613      0.00000

 soft charge-density along one line, spin component           1
         0         1         2         3         4         5         6         7         8         9
 total charge-density along one line

------------------------ aborting loop because EDIFF is reached ----------------------------------------

         DFTD3 V3.0 Rev 1
 Edisp (eV)   -0.90353

 E6    (eV) :    -0.6440
 E8    (eV) :    -0.2596
 % E8        : 28.73

  FORCE on cell =-STRESS in cart. coord.  units (eV):
  Direction    XX          YY          ZZ          XY          YZ          ZX
  Alpha Z    67.87431    67.87431    67.87431
  Ewald    -198.95979  -198.82909  -345.88393     0.11319    -0.00000     0.00000
  Hartree    19.36022    19.35595     1.50779    -0.00370    -0.00000    -0.00000
  E(xc)     -61.39197   -61.39171   -61.83205     0.00022     0.00000    -0.00000
  Local     -60.24761   -60.33380    86.19781    -0.07465     0.00000     0.00000
  n-local   -13.48027   -12.47303   -17.02661    -0.30085    -0.15652     0.26199
  augment    -1.64827    -1.64864    -1.51107    -0.00032     0.00000     0.00000
  Kinetic   253.58357   250.47254   306.83014     0.91048     1.31045    -2.10026
  Fock        0.00000     0.00000     0.00000     0.00000     0.00000     0.00000
  vdW        -0.91258    -0.91256    -0.91508     0.00002    -0.00000    -0.00000
  Total       3.12471     3.16686    35.24132     0.03650     0.00000     0.00000
  in kB     260.64809   264.16394  2939.65428     3.04481     0.00000     0.00000

 VOLUME and BASIS-vectors are now :
  energy-cutoff  :      600.00
  volume of cell :       19.21
      direct lattice vectors                 reciprocal lattice vectors
     2.466437249 -0.000959643  0.000000000     0.405534294  0.234345762  0.000000000
    -1.234049700  2.135517493  0.000000000     0.000182236  0.468375882  0.000000000
     0.000000000  0.000000000  3.647462900     0.000000000  0.000000000  0.274163172

  length of vectors
     2.466437436  2.466437436  3.647462900     0.468375917  0.468375917  0.274163172

 FORCES acting on ions
    electron-ion (+dipol)            ewald-force                    non-local-force                 convergence-correction
   -.125E+00 0.721E-01 -.127E-13   0.132E+00 -.763E-01 -.799E-14   -.388E-02 0.224E-02 0.139E-16   -.148E-03 0.856E-04 0.301E-12
   0.125E+00 -.721E-01 0.829E-13   -.132E+00 0.762E-01 0.818E-14   0.388E-02 -.224E-02 -.416E-16   0.148E-03 -.856E-04 -.301E-12
   0.110E+00 -.634E-01 -.186E-12   -.114E+00 0.661E-01 -.708E-14   -.574E-02 0.331E-02 -.139E-16   -.444E-04 0.256E-04 0.300E-12
   -.110E+00 0.634E-01 0.133E-11   0.114E+00 -.660E-01 0.689E-14   0.574E-02 -.331E-02 0.139E-16   0.444E-04 -.256E-04 -.311E-12
   -.778E-05 -.135E-04 0.121E-11   -.278E-14 -.888E-15 0.000E+00   -.180E-15 0.278E-16 -.278E-16   0.144E-09 0.249E-09 -.101E-13

 POSITION                                       TOTAL-FORCE (eV/Angst)
      2.46368      0.00063      0.91187         0.003162     -0.001825      0.000000
     -1.23129      2.13392      2.73560        -0.003162      0.001825     -0.000000
     -0.00302      1.42478      0.91187        -0.010396      0.006002     -0.000000
      1.23541      0.70978      2.73560         0.010396     -0.006002      0.000000
    total drift:                               -0.000008     -0.000013      0.000000

  FREE ENERGIE OF THE ION-ELECTRON SYSTEM (eV)
  free  energy   TOTEN  =       -30.13683620 eV

  energy  without entropy=      -30.13683620  energy(sigma->0) =      -30.13683620

 d Force = 0.2878013E-03[ 0.337E-04, 0.542E-03]  d Energy = 0.2545092E-03 0.333E-04
 d Force = 0.1468420E-02[ 0.636E-03, 0.230E-02]  d Ewald  = 0.1469500E-02-0.108E-05

 reached required accuracy - stopping structural energy minimisation
 BZINTS: Fermi energy: 14.049549; 16.000000 electrons
         Band energy:  42.718299;  BLOECHL correction: -0.048284