 vasp.5.3.5 31Mar14 (build Nov 02 2014 15:17:37) complex

 executed on        ion-Intel-MKL date 2016.08.14  01:29:07

 INCAR:
 POTCAR:   PAW_PBE C 08Apr2002

 POTCAR:   PAW_PBE C 08Apr2002
   VRHFIN =C: s2p2

   TITEL  = PAW_PBE C 08Apr2002
   POMASS =   12.011; ZVAL   =    4.000    mass and valenz
   ENMAX  =  400.000; ENMIN  =  300.000 eV
   QCUT   =   -5.516; QGAM   =   11.032    optimization parameters

   Description
     l     E      TYP  RCUT    TYP  RCUT
     0   .000     23  1.200
     0   .000     23  1.200
     1   .000     23  1.500
     1  2.500     23  1.500
     2   .000      7  1.500

 PAW_PBE C 08Apr2002                    :

 POSCAR: C
  positions in direct lattice
 exchange correlation table for  LEXCH =        8
   RHO(1)=    0.500       N(1)  =     2000
   RHO(2)=  100.500       N(2)  =     4000

 ion  position               nearest neighbor table
   1  0.499  0.000  0.124-  19 1.42  18 1.42  20 1.43
   2  1.000  0.000  0.125-  19 1.42  17 1.42  20 1.42
   3  0.500  0.500  0.125-  18 1.42  20 1.42  17 1.42
   4  1.000  0.500  0.125-  17 1.42  19 1.42  18 1.42
   5  0.500  0.000  0.625-  24 1.42  22 1.42  23 1.42
   6  1.000  0.000  0.625-  23 1.42  21 1.42  24 1.42
   7  0.500  0.500  0.625-  22 1.42  24 1.42  21 1.42
   8  1.000  0.500  0.625-  21 1.42  23 1.42  22 1.42
   9  0.000  0.500  0.375-  28 1.42  27 1.42  26 1.42
  10  0.500  0.500  0.375-  27 1.42  28 1.42  25 1.42
  11  0.000  1.000  0.375-  26 1.42  25 1.42  28 1.42
  12  0.500  1.000  0.375-  25 1.42  26 1.42  27 1.42
  13  0.000  0.500  0.875-  32 1.42  31 1.42  30 1.42
  14  0.500  0.500  0.875-  31 1.42  32 1.42  29 1.42
  15  0.000  1.000  0.875-  30 1.42  29 1.42  32 1.42
  16  0.500  1.000  0.875-  29 1.42  30 1.42  31 1.42
  17  0.167  0.333  0.125-   4 1.42   2 1.42   3 1.42
  18  0.667  0.333  0.125-   3 1.42   4 1.42   1 1.42
  19  0.167  0.833  0.125-   1 1.42   2 1.42   4 1.42
  20  0.667  0.833  0.125-   3 1.42   2 1.42   1 1.43
  21  0.167  0.333  0.625-   8 1.42   6 1.42   7 1.42
  22  0.667  0.333  0.625-   7 1.42   5 1.42   8 1.42
  23  0.167  0.833  0.625-   6 1.42   8 1.42   5 1.42
  24  0.667  0.833  0.625-   5 1.42   7 1.42   6 1.42
  25  0.333  0.167  0.375-  12 1.42  11 1.42  10 1.42
  26  0.833  0.167  0.375-  11 1.42  12 1.42   9 1.42
  27  0.333  0.667  0.375-  10 1.42   9 1.42  12 1.42
  28  0.833  0.667  0.375-   9 1.42  10 1.42  11 1.42
  29  0.333  0.167  0.875-  16 1.42  15 1.42  14 1.42
  30  0.833  0.167  0.875-  15 1.42  16 1.42  13 1.42
  31  0.333  0.667  0.875-  14 1.42  13 1.42  16 1.42
  32  0.833  0.667  0.875-  13 1.42  14 1.42  15 1.42

  LATTYP: Found a base centered orthorhombic cell.
 ALAT       =     4.9339256766
 B/A-ratio  =     1.7322311103
 C/A-ratio  =     1.9084274582

  Lattice vectors:

 A1 = (   4.9343108848,  -0.0002224000,   0.0000000000)
 A2 = (  -2.4673480464,   4.2731273763,   0.0000000000)
 A3 = (   0.0000000000,   0.0000000000,   9.4160392380)

Analysis of symmetry for initial positions (statically):
 Subroutine PRICEL returns:
 Original cell was already a primitive cell.

 Routine SETGRP: Setting up the symmetry group for a
 base centered orthorhombic supercell.

 Subroutine GETGRP returns: Found  1 space group operations
 (whereof  1 operations were pure point group operations)
 out of a pool of  8 trial point group operations.

The static configuration has the point symmetry C_1 .

Analysis of symmetry for dynamics (positions and initial velocities):
 Subroutine PRICEL returns:
 Original cell was already a primitive cell.

 Routine SETGRP: Setting up the symmetry group for a
 base centered orthorhombic supercell.

 Subroutine GETGRP returns: Found  1 space group operations
 (whereof  1 operations were pure point group operations)
 out of a pool of  8 trial point group operations.

The dynamic configuration has the point symmetry C_1 .

 KPOINTS: B4C B11C-CBC

Automatic generation of k-mesh.
Space group operators:
 irot       det(A)        alpha          n_x          n_y          n_z        tau_x        tau_y        tau_z
    1     1.000000     0.000001     1.000000     0.000000     0.000000     0.000000     0.000000     0.000000

 Subroutine IBZKPT returns following result:

 Found    163 irreducible k-points:

 Following reciprocal coordinates:
            Coordinates               Weight
  0.000000  0.000000  0.000000      1.000000
  0.111111  0.000000  0.000000      2.000000
  0.222222  0.000000  0.000000      2.000000
  0.333333  0.000000  0.000000      2.000000
  0.444444  0.000000  0.000000      2.000000
  0.000000  0.111111  0.000000      2.000000
  0.111111  0.111111  0.000000      2.000000
  0.222222  0.111111  0.000000      2.000000
  0.333333  0.111111  0.000000      2.000000
  0.444444  0.111111  0.000000      2.000000
 -0.444444  0.111111  0.000000      2.000000
 -0.333333  0.111111  0.000000      2.000000
 -0.222222  0.111111  0.000000      2.000000
 -0.111111  0.111111  0.000000      2.000000
  0.000000  0.222222  0.000000      2.000000
  0.111111  0.222222  0.000000      2.000000
  0.222222  0.222222  0.000000      2.000000
  0.333333  0.222222  0.000000      2.000000
  0.444444  0.222222  0.000000      2.000000
 -0.444444  0.222222  0.000000      2.000000
 -0.333333  0.222222  0.000000      2.000000
 -0.222222  0.222222  0.000000      2.000000
 -0.111111  0.222222  0.000000      2.000000
  0.000000  0.333333  0.000000      2.000000
  0.111111  0.333333  0.000000      2.000000
  0.222222  0.333333  0.000000      2.000000
  0.333333  0.333333  0.000000      2.000000
  0.444444  0.333333  0.000000      2.000000
 -0.444444  0.333333  0.000000      2.000000
 -0.333333  0.333333  0.000000      2.000000
 -0.222222  0.333333  0.000000      2.000000
 -0.111111  0.333333  0.000000      2.000000
  0.000000  0.444444  0.000000      2.000000
  0.111111  0.444444  0.000000      2.000000
  0.222222  0.444444  0.000000      2.000000
  0.333333  0.444444  0.000000      2.000000
  0.444444  0.444444  0.000000      2.000000
 -0.444444  0.444444  0.000000      2.000000
 -0.333333  0.444444  0.000000      2.000000
 -0.222222  0.444444  0.000000      2.000000
 -0.111111  0.444444  0.000000      2.000000
  0.000000  0.000000  0.250000      2.000000
  0.111111  0.000000  0.250000      2.000000
  0.222222  0.000000  0.250000      2.000000
  0.333333  0.000000  0.250000      2.000000
  0.444444  0.000000  0.250000      2.000000
 -0.444444 -0.000000  0.250000      2.000000
 -0.333333  0.000000  0.250000      2.000000
 -0.222222 -0.000000  0.250000      2.000000
 -0.111111 -0.000000  0.250000      2.000000
  0.000000  0.111111  0.250000      2.000000
  0.111111  0.111111  0.250000      2.000000
  0.222222  0.111111  0.250000      2.000000
  0.333333  0.111111  0.250000      2.000000
  0.444444  0.111111  0.250000      2.000000
 -0.444444  0.111111  0.250000      2.000000
 -0.333333  0.111111  0.250000      2.000000
 -0.222222  0.111111  0.250000      2.000000
 -0.111111  0.111111  0.250000      2.000000
  0.000000  0.222222  0.250000      2.000000
[...]
  0.333333  0.333333  0.500000      2.000000
  0.444444  0.333333  0.500000      2.000000
 -0.444444  0.333333  0.500000      2.000000
 -0.333333  0.333333  0.500000      2.000000
 -0.222222  0.333333  0.500000      2.000000
 -0.111111  0.333333  0.500000      2.000000
  0.000000  0.444444  0.500000      2.000000
  0.111111  0.444444  0.500000      2.000000
  0.222222  0.444444  0.500000      2.000000
  0.333333  0.444444  0.500000      2.000000
  0.444444  0.444444  0.500000      2.000000
 -0.444444  0.444444  0.500000      2.000000
 -0.333333  0.444444  0.500000      2.000000
 -0.222222  0.444444  0.500000      2.000000
 -0.111111  0.444444  0.500000      2.000000

 Following cartesian coordinates:
            Coordinates               Weight
  0.000000  0.000000  0.000000      1.000000
  0.022519  0.013002  0.000000      2.000000
  0.045037  0.026005  0.000000      2.000000
  0.067556  0.039007  0.000000      2.000000
  0.090075  0.052010  0.000000      2.000000
  0.000001  0.026003  0.000000      2.000000
  0.022520  0.039005  0.000000      2.000000
  0.045038  0.052008  0.000000      2.000000
  0.067557  0.065010  0.000000      2.000000
  0.090076  0.078013  0.000000      2.000000
 -0.090073 -0.026007  0.000000      2.000000
 -0.067555 -0.013005  0.000000      2.000000
 -0.045036 -0.000002  0.000000      2.000000
 -0.022517  0.013000  0.000000      2.000000
  0.000002  0.052006  0.000000      2.000000
  0.022521  0.065008  0.000000      2.000000
  0.045040  0.078011  0.000000      2.000000
  0.067558  0.091013  0.000000      2.000000
  0.090077  0.104016  0.000000      2.000000
 -0.090072 -0.000004  0.000000      2.000000
 -0.067554  0.012998  0.000000      2.000000
 -0.045035  0.026001  0.000000      2.000000
 -0.022516  0.039003  0.000000      2.000000
  0.000004  0.078009  0.000000      2.000000
  0.022522  0.091011  0.000000      2.000000
  0.045041  0.104014  0.000000      2.000000
  0.067559  0.117016  0.000000      2.000000
  0.090078  0.130019  0.000000      2.000000
 -0.090071  0.025999  0.000000      2.000000
 -0.067552  0.039001  0.000000      2.000000
 -0.045034  0.052004  0.000000      2.000000
 -0.022515  0.065006  0.000000      2.000000
  0.000005  0.104012  0.000000      2.000000
  0.022523  0.117014  0.000000      2.000000
  0.045042  0.130017  0.000000      2.000000
  0.067561  0.143019  0.000000      2.000000
  0.090079  0.156022  0.000000      2.000000
 -0.090070  0.052002  0.000000      2.000000
 -0.067551  0.065004  0.000000      2.000000
 -0.045033  0.078007  0.000000      2.000000
 -0.022514  0.091009  0.000000      2.000000
  0.000000  0.000000  0.026550      2.000000
  0.022519  0.013002  0.026550      2.000000
  0.045037  0.026005  0.026550      2.000000
  0.067556  0.039007  0.026550      2.000000
  0.090075  0.052010  0.026550      2.000000
 -0.090075 -0.052010  0.026550      2.000000
 -0.067556 -0.039007  0.026550      2.000000
 -0.045037 -0.026005  0.026550      2.000000
 -0.022519 -0.013002  0.026550      2.000000
  0.000001  0.026003  0.026550      2.000000
  0.022520  0.039005  0.026550      2.000000
  0.045038  0.052008  0.026550      2.000000
  0.067557  0.065010  0.026550      2.000000
  0.090076  0.078013  0.026550      2.000000
 -0.090073 -0.026007  0.026550      2.000000
 -0.067555 -0.013005  0.026550      2.000000
 -0.045036 -0.000002  0.026550      2.000000
 -0.022517  0.013000  0.026550      2.000000
  0.000002  0.052006  0.026550      2.000000
[...]
  0.067559  0.117016  0.053101      2.000000
  0.090078  0.130019  0.053101      2.000000
 -0.090071  0.025999  0.053101      2.000000
 -0.067552  0.039001  0.053101      2.000000
 -0.045034  0.052004  0.053101      2.000000
 -0.022515  0.065006  0.053101      2.000000
  0.000005  0.104012  0.053101      2.000000
  0.022523  0.117014  0.053101      2.000000
  0.045042  0.130017  0.053101      2.000000
  0.067561  0.143019  0.053101      2.000000
  0.090079  0.156022  0.053101      2.000000
 -0.090070  0.052002  0.053101      2.000000
 -0.067551  0.065004  0.053101      2.000000
 -0.045033  0.078007  0.053101      2.000000
 -0.022514  0.091009  0.053101      2.000000

 I would recommend the setting:
[...]

[...]

----------------------------------------- Iteration    1(  13)  ---------------------------------------

 eigenvalue-minimisations  : 19488
 total energy-change (2. order) : 0.1908711E-06  (-0.3087282E-07)
 number of electron     127.9999996 magnetization
 augmentation part        3.0963513 magnetization

 Free energy of the ion-electron system (eV)
  alpha Z        PSCENC =       420.26434557
  Ewald energy   TEWEN  =     -5156.44631672
  -Hartree energ DENC   =      -594.95985550
  -exchange      EXHF   =         0.00000000
  -V(xc)+E(xc)   XCENC  =       469.35179139
  PAW double counting   =      2253.67017843    -2295.21702534
  entropy T*S    EENTRO =        -0.01037621
  eigenvalues    EBANDS =       -86.43308922
  atomic energy  EATOM  =      4708.80920826
  free energy    TOTEN  =      -280.97113934 eV

  energy without entropy =     -280.96076313  energy(sigma->0) =     -280.96595123

 average (electrostatic) potential at core
  the test charge radii are     0.6991
  (the norm of the test charge is              1.0000)
       1 -46.9825       2 -46.9823       3 -46.9792       4 -46.9855       5 -46.9824
       6 -46.9824       7 -46.9825       8 -46.9823       9 -46.9813      10 -46.9809
      11 -46.9811      12 -46.9782      13 -46.9839      14 -46.9835      15 -46.9837
      16 -46.9868      17 -46.6472      18 -46.6472      19 -46.6471      20 -46.6474
      21 -46.6473      22 -46.6473      23 -46.6470      24 -46.6476      25 -46.6464
      26 -46.6458      27 -46.6461      28 -46.6449      29 -46.6488      30 -46.6481
      31 -46.6485      32 -46.6496

 E-fermi :   8.5526     XC(G=0): -12.6737     alpha+bet :-16.1812

 k-point     1 :       0.0000    0.0000    0.0000
  band No.  band energies     occupation
      1     -12.4419      2.00000
      2     -11.3612      2.00000
      3     -11.3576      2.00000
      4      -9.6737      2.00000
      5      -6.8097      2.00000
      6      -6.8085      2.00000
      7      -6.8079      2.00000
      8      -6.1158      2.00000
      9      -6.1135      2.00000
     10      -6.1110      2.00000
     11      -6.0035      2.00000
     12      -5.9992      2.00000
     13      -5.9983      2.00000
     14      -5.9974      2.00000
     15      -5.9965      2.00000
     16      -5.9918      2.00000
     17      -4.9638      2.00000
     18      -4.9608      2.00000
     19      -4.9596      2.00000
     20      -4.9590      2.00000
     21      -4.9572      2.00000
     22      -4.9548      2.00000
     23      -4.3105      2.00000
     24      -4.3091      2.00000
     25      -4.3072      2.00000
     26      -3.9837      2.00000
     27      -3.9823      2.00000
     28      -3.9813      2.00000
     29      -2.4496      2.00000
     30       1.4404      2.00000
     31       1.4462      2.00000
     32       1.6077      2.00000
     33       1.6105      2.00000
     34       1.6117      2.00000
     35       2.0525      2.00000
     36       2.0559      2.00000
     37       2.0563      2.00000
     38       2.0574      2.00000
     39       2.0594      2.00000
     40       2.0617      2.00000
     41       2.5464      2.00000
     42       2.5493      2.00000
     43       2.5508      2.00000
     44       3.5766      2.00000
     45       3.5773      2.00000
     46       3.5780      2.00000
     47       5.2600      2.00000
     48       5.2647      2.00000
     49       5.4545      2.00000
     50       5.4588      2.00000
     51       5.4637      2.00000
     52       5.4678      2.00000
     53       5.6535      2.00000
     54       5.6589      2.00000
     55       5.8971      2.00000
     56       5.9001      2.00000
     57       5.9017      2.00000
     58       6.0118      2.00000
     59       6.3556      2.00000
     60       6.3661      2.00000
[...]
     70      10.1649      0.00000
     71      12.2576      0.00000
     72      12.2601      0.00000
     73      12.2612      0.00000
     74      12.3092      0.00000
     75      12.3114      0.00000
     76      12.3142      0.00000
     77      14.2021      0.00000
     78      14.2067      0.00000
     79      14.2100      0.00000
     80      15.7123      0.00000
     81      15.7183      0.00000
     82      15.7192      0.00000
     83      15.7234      0.00000
     84      15.7260      0.00000

[...]

 k-point   163 :      -0.1111    0.4444    0.5000
  band No.  band energies     occupation
      1     -11.1748      2.00000
      2     -11.1705      2.00000
      3      -9.8281      2.00000
      4      -9.8238      2.00000
      5      -9.3600      2.00000
      6      -9.3593      2.00000
      7      -8.5121      2.00000
      8      -8.5079      2.00000
      9      -8.1015      2.00000
     10      -8.1009      2.00000
     11      -6.8805      2.00000
     12      -6.8801      2.00000
     13      -6.6297      2.00000
     14      -6.6256      2.00000
     15      -5.2115      2.00000
     16      -5.2104      2.00000
     17      -3.9337      2.00000
     18      -3.9289      2.00000
     19      -2.8960      2.00000
     20      -2.8944      2.00000
     21      -2.2578      2.00000
     22      -2.2535      2.00000
     23      -1.2592      2.00000
     24      -1.2576      2.00000
     25      -1.1205      2.00000
     26      -1.1173      2.00000
     27      -0.9969      2.00000
     28      -0.9934      2.00000
     29      -0.2678      2.00000
     30      -0.2651      2.00000
     31      -0.1394      2.00000
     32      -0.1343      2.00000
     33       0.0380      2.00000
     34       0.0388      2.00000
     35       0.3806      2.00000
     36       0.3837      2.00000
     37       1.1324      2.00000
     38       1.1353      2.00000
     39       1.4154      2.00000
     40       1.4212      2.00000
     41       2.0464      2.00000
     42       2.0498      2.00000
     43       2.3623      2.00000
     44       2.3654      2.00000
     45       2.7454      2.00000
     46       2.7489      2.00000
     47       2.8770      2.00000
     48       2.8832      2.00000
     49       3.0114      2.00000
     50       3.0126      2.00000
     51       3.5725      2.00000
     52       3.5769      2.00000
     53       4.0863      2.00000
     54       4.0879      2.00000
     55       4.8422      2.00000
     56       4.8498      2.00000
     57       5.4013      2.00000
     58       5.4052      2.00000
     59       6.5495      2.00000
     60       6.5530      2.00000
[...]
     70      11.5736      0.00000
     71      12.5719      0.00000
     72      12.5789      0.00000
     73      13.2174      0.00000
     74      13.2234      0.00000
     75      14.8445      0.00000
     76      14.8508      0.00000
     77      15.3410      0.00000
     78      15.3482      0.00000
     79      15.8534      0.00000
     80      15.8573      0.00000
     81      16.3171      0.00000
     82      16.3243      0.00000
     83      17.0915      0.00000
     84      17.0981      0.00000

 soft charge-density along one line, spin component           1
         0         1         2         3         4         5         6         7         8         9
 total charge-density along one line

------------------------ aborting loop because EDIFF is reached ----------------------------------------

         DFTD3 V3.0 Rev 1
 IVDW         = 11
 DF pbe
 parameters
 VDW_S6       =    1.0000
 VDW_S8       =    0.7220
 VDW_SR       =    1.2170
 rs18     =    1.0000
 alpha6   =   14.0000
 alpha8   =   16.0000
 k1-k3    =   16.0000    1.3333   -4.0000
 VDW_RADIUS   =   50.2022 A
 VDW_CNRADIUS =   21.1671 A
 Edisp (eV)   -3.72047

 E6    (eV) :    -2.2431
 E8    (eV) :    -1.4773
 % E8        : 39.71

  FORCE on cell =-STRESS in cart. coord.  units (eV):
  Direction    XX          YY          ZZ          XY          YZ          ZX
  Alpha Z   420.26435   420.26435   420.26435
  Ewald    -839.59212  -839.99168 -3476.88438     0.64430    -0.00007    -0.01096
  Hartree   419.37826   419.33094  -243.75174     0.08878     0.00000    -0.00237
  E(xc)    -475.36250  -475.36445  -485.11595     0.00187     0.00000    -0.00002
  Local   -1342.13056 -1341.75993  1720.71706    -0.60755     0.00003     0.01109
  n-local  -109.98258  -109.99787  -112.09328    -0.00586     0.00000     0.00017
  augment   -12.57023   -12.56955   -11.47149    -0.00101     0.00000     0.00001
  Kinetic  1936.93986  1937.08538  2288.27187    -0.03775    -0.00002    -0.00018
  Fock        0.00000     0.00000     0.00000     0.00000     0.00000     0.00000
  vdW         1.24292     1.24415     1.58038     0.00053    -0.00000    -0.00002
  Total      -1.81261    -1.75866   101.51683     0.08331    -0.00005    -0.00228
  in kB     -14.62801   -14.19264   819.25546     0.67232    -0.00043    -0.01843

 VOLUME and BASIS-vectors are now :
  energy-cutoff  :      600.00
  volume of cell :      198.53
      direct lattice vectors                 reciprocal lattice vectors
     4.934310885 -0.000222400  0.000000000     0.202667819  0.117022500  0.000000000
    -2.467348046  4.273127376  0.000000000     0.000010548  0.234026730  0.000000000
     0.000000000  0.000000000  9.416039238     0.000000000  0.000000000  0.106201766

  length of vectors
     4.934310890  4.934310890  9.416039238     0.234026730  0.234026730  0.106201766

 FORCES acting on ions
    electron-ion (+dipol)            ewald-force                    non-local-force                 convergence-correction
   -.100E+01 -.436E-02 0.435E+00   0.115E+01 0.772E-02 -.410E+00   0.120E+00 0.148E-02 0.114E+00   -.887E-04 0.173E-05 -.132E-04
   0.273E+00 0.221E-03 -.321E+00   -.296E+00 0.165E-02 0.308E+00   -.259E-01 0.125E-02 0.152E-01   0.962E-04 -.392E-05 -.193E-04
   0.383E-01 -.135E+00 -.321E+00   -.282E-01 0.156E+00 0.308E+00   -.986E-02 0.104E-01 0.152E-01   0.619E-07 -.565E-04 -.195E-04
   0.379E-01 0.136E+00 -.321E+00   -.282E-01 -.153E+00 0.308E+00   -.981E-02 -.812E-02 0.152E-01   -.961E-05 0.589E-04 -.184E-04
   -.499E-02 0.416E-03 0.139E+00   -.506E-04 0.163E-02 -.140E+00   -.221E-02 0.118E-02 0.700E-03   0.308E-04 -.649E-06 0.283E-04
   0.223E-02 0.440E-03 0.125E+00   -.561E-02 0.163E-02 -.126E+00   -.267E-02 0.117E-02 -.256E-02   -.305E-04 0.141E-05 0.337E-04
   -.138E-02 -.168E-02 0.125E+00   -.287E-02 0.322E-02 -.126E+00   -.237E-02 0.135E-02 -.256E-02   -.192E-05 0.173E-04 0.329E-04
   -.134E-02 0.247E-02 0.125E+00   -.287E-02 0.509E-04 -.126E+00   -.239E-02 0.102E-02 -.257E-02   0.105E-05 -.181E-04 0.335E-04
   0.697E-04 0.220E-01 0.744E-01   0.139E-02 -.235E-01 -.751E-01   0.260E-02 -.574E-03 0.163E-02   0.257E-06 -.763E-05 -.207E-05
   0.605E-02 -.193E-01 0.731E-01   0.138E-02 0.202E-01 -.751E-01   0.239E-02 -.191E-02 0.591E-02   -.753E-06 0.770E-05 -.225E-05
   0.388E-01 -.384E-02 0.736E-01   -.365E-01 -.165E-02 -.750E-01   0.365E-02 -.106E-02 0.376E-02   -.135E-04 0.554E-06 -.224E-05
   -.495E-01 -.391E-03 0.317E+00   0.560E-01 -.166E-02 -.334E+00   0.255E-02 -.118E-02 0.149E-01   0.146E-04 -.646E-06 -.139E-05
   0.614E-02 0.190E-01 0.725E-01   0.134E-02 -.240E-01 -.744E-01   0.240E-02 -.431E-03 0.592E-02   0.118E-05 -.604E-05 -.133E-04
   0.107E-03 -.233E-01 0.737E-01   0.132E-02 0.207E-01 -.744E-01   0.261E-02 -.182E-02 0.162E-02   -.221E-05 0.130E-04 -.115E-04
   0.397E-01 0.311E-02 0.732E-01   -.374E-01 -.165E-02 -.745E-01   0.371E-02 -.130E-02 0.378E-02   -.166E-04 -.217E-05 -.121E-04
   -.511E-01 -.387E-03 0.319E+00   0.577E-01 -.166E-02 -.337E+00   0.249E-02 -.118E-02 0.159E-01   0.183E-04 -.487E-05 -.932E-05
   0.104E+00 -.373E-03 -.259E+00   -.995E-01 -.165E-02 0.264E+00   -.557E-03 -.123E-02 -.188E-01   0.401E-04 0.148E-05 -.199E-04
   -.323E+00 0.750E-02 -.746E+00   0.316E+00 -.101E-01 0.788E+00   -.313E-01 -.103E-02 -.706E-01   -.304E-04 -.283E-05 -.164E-04
   0.438E+00 0.441E+00 -.751E+00   -.509E+00 -.480E+00 0.794E+00   -.234E-01 0.340E-02 -.709E-01   -.132E-05 0.159E-04 -.163E-04
   0.447E+00 -.443E+00 -.741E+00   -.518E+00 0.478E+00 0.783E+00   -.221E-01 -.641E-02 -.702E-01   -.813E-05 -.149E-04 -.176E-04
   0.199E-02 0.730E-05 0.124E+00   0.218E-02 -.202E-02 -.124E+00   0.233E-02 -.122E-02 0.133E-02   -.172E-04 -.453E-06 0.331E-04
   -.946E-03 -.298E-04 0.130E+00   0.493E-02 -.199E-02 -.131E+00   0.220E-02 -.123E-02 0.250E-02   0.180E-04 -.889E-06 0.300E-04
   0.422E-03 0.804E-03 0.130E+00   0.349E-02 -.287E-02 -.131E+00   0.232E-02 -.115E-02 0.249E-02   0.530E-06 -.947E-05 0.305E-04
   0.360E-03 -.739E-03 0.130E+00   0.355E-02 -.123E-02 -.131E+00   0.232E-02 -.129E-02 0.251E-02   -.971E-06 0.109E-04 0.304E-04
   -.709E-01 0.285E-01 0.995E-01   0.739E-01 -.296E-01 -.102E+00   -.313E-02 0.150E-02 -.597E-02   0.982E-05 -.845E-05 -.154E-04
   0.795E-01 0.581E-01 0.182E+00   -.913E-01 -.615E-01 -.188E+00   -.312E-02 0.966E-03 -.460E-02   -.108E-04 -.456E-05 0.122E-04
   -.213E-01 -.868E-01 0.141E+00   0.189E-01 0.974E-01 -.145E+00   -.266E-02 0.121E-02 -.529E-02   -.378E-05 0.126E-04 -.157E-05
   0.147E-01 0.365E-04 0.579E-01   -.210E-01 0.198E-02 -.621E-01   -.122E-02 0.123E-02 0.461E-02   0.447E-05 0.145E-06 -.404E-05
   0.803E-01 -.591E-01 0.183E+00   -.924E-01 0.667E-01 -.189E+00   -.311E-02 0.149E-02 -.464E-02   -.100E-04 0.292E-05 0.392E-05
   -.713E-01 -.286E-01 0.985E-01   0.745E-01 0.338E-01 -.101E+00   -.318E-02 0.934E-03 -.605E-02   0.825E-05 0.350E-05 -.246E-04
   -.219E-01 0.875E-01 0.141E+00   0.196E-01 -.943E-01 -.145E+00   -.267E-02 0.126E-02 -.534E-02   -.103E-05 -.827E-05 -.104E-04
   0.151E-01 0.170E-04 0.572E-01   -.214E-01 0.200E-02 -.615E-01   -.122E-02 0.123E-02 0.471E-02   0.193E-05 0.163E-05 -.124E-04
   0.864E-03 -.979E-06 0.378E-01   -.433E-13 0.379E-13 0.362E-14   -.862E-03 0.362E-05 -.378E-01   -.202E-05 -.634E-06 0.547E-05

 POSITION                                       TOTAL-FORCE (eV/Angst)
      2.46251     -0.00011      1.16815         0.271223      0.004843      0.145672
      4.93431     -0.00022      1.17700        -0.050157      0.003122      0.002381
      1.23348      2.13645      1.17700        -0.000110      0.032057      0.002460
      3.70064      2.13634      1.17700        -0.000402     -0.025567      0.002319
      2.46715     -0.00011      5.88502        -0.007223      0.003228      0.000023
      4.93431     -0.00022      5.88502        -0.006088      0.003249     -0.002927
      1.23348      2.13645      5.88502        -0.006630      0.002912     -0.002926
      3.70064      2.13634      5.88502        -0.006599      0.003519     -0.002928
     -1.23367      2.13656      3.53101         0.004055     -0.002176      0.000826
      1.23348      2.13645      3.53101         0.009808     -0.000969      0.003868
     -2.46735      4.27313      3.53101         0.005887     -0.006552      0.002338
     -0.00019      4.27302      3.53101         0.009173     -0.003234     -0.005002
     -1.23367      2.13656      8.23903         0.009882     -0.005541      0.003885
      1.23348      2.13645      8.23903         0.004031     -0.004309      0.000848
     -2.46735      4.27313      8.23903         0.005891      0.000151      0.002377
     -0.00019      4.27302      8.23903         0.009244     -0.003234     -0.004557
     -0.00019      1.42441      1.17700         0.003622     -0.003248     -0.013465
      2.46696      1.42430      1.17700        -0.038098     -0.003652     -0.028310
     -1.23387      3.56098      1.17700        -0.094665     -0.035997     -0.027775
      1.23329      3.56086      1.17700        -0.092961      0.028343     -0.028784
     -0.00019      1.42441      5.88502         0.006491     -0.003241      0.001324
      2.46696      1.42430      5.88502         0.006207     -0.003254      0.001319
     -1.23387      3.56098      5.88502         0.006241     -0.003222      0.001312
      1.23329      3.56086      5.88502         0.006220     -0.003248      0.001326
      1.23367      0.71204      3.53101        -0.000006      0.000385     -0.008346
      3.70083      0.71193      3.53101        -0.014999     -0.002530     -0.010284
     -0.00000      2.84860      3.53101        -0.004977      0.011902     -0.009323
      2.46715      2.84849      3.53101        -0.007471      0.003253      0.000392
      1.23367      0.71204      8.23903        -0.015297      0.009209     -0.010559
      3.70083      0.71193      8.23903         0.000176      0.006237     -0.008441
     -0.00000      2.84860      8.23903        -0.004987     -0.005685     -0.009486
      2.46715      2.84849      8.23903        -0.007479      0.003250      0.000444
    total drift:                               -0.000001      0.000002     -0.000049

  FREE ENERGIE OF THE ION-ELECTRON SYSTEM (eV)
  free  energy   TOTEN  =      -284.69160518 eV

  energy  without entropy=     -284.68122896  energy(sigma->0) =     -284.68641707