 vasp.5.3.5 31Mar14 (build Nov 04 2014 22:34:45) complex

 executed on         atom-AMD-MKL date 2016.10.14  16:55:26

 INCAR:
 POTCAR:   PAW_PBE C 08Apr2002

 POTCAR:   PAW_PBE C 08Apr2002
   VRHFIN =C: s2p2

   TITEL  = PAW_PBE C 08Apr2002
   POMASS =   12.011; ZVAL   =    4.000    mass and valenz
   ENMAX  =  400.000; ENMIN  =  300.000 eV
   QCUT   =   -5.516; QGAM   =   11.032    optimization parameters

   Description
     l     E      TYP  RCUT    TYP  RCUT
     0   .000     23  1.200
     0   .000     23  1.200
     1   .000     23  1.500
     1  2.500     23  1.500
     2   .000      7  1.500

 PAW_PBE C 08Apr2002                    :

 POSCAR: C
  positions in direct lattice
 exchange correlation table for  LEXCH =        8
   RHO(1)=    0.500       N(1)  =     2000
   RHO(2)=  100.500       N(2)  =     4000

 ion  position               nearest neighbor table
   1  0.499  0.000  0.124-  19 1.42  18 1.42  20 1.43
   2  1.000  0.000  0.125-  17 1.42  20 1.42  19 1.42
   3  0.500  0.500  0.125-  20 1.42  17 1.42  18 1.42
   4  1.000  0.500  0.125-  19 1.42  18 1.42  17 1.42
   5  0.500  0.000  0.625-  22 1.42  23 1.42  24 1.42
   6  1.000  0.000  0.625-  21 1.42  24 1.42  23 1.42
   7  0.500  0.500  0.625-  24 1.42  21 1.42  22 1.42
   8  1.000  0.500  0.625-  23 1.42  22 1.42  21 1.42
   9  0.000  0.500  0.375-  27 1.42  26 1.42  28 1.42
  10  0.500  0.500  0.375-  28 1.42  25 1.42  27 1.42
  11  0.000  1.000  0.375-  25 1.42  28 1.42  26 1.42
  12  0.500  1.000  0.375-  26 1.42  27 1.42  25 1.42
  13  0.000  0.500  0.875-  31 1.42  30 1.42  32 1.42
  14  0.500  0.500  0.875-  32 1.42  29 1.42  31 1.42
  15  0.000  1.000  0.875-  29 1.42  32 1.42  30 1.42
  16  0.500  1.000  0.875-  30 1.42  31 1.42  29 1.42
  17  0.166  0.334  0.125-   2 1.42   3 1.42   4 1.42
  18  0.666  0.334  0.125-   4 1.42   1 1.42   3 1.42
  19  0.166  0.834  0.125-   1 1.42   4 1.42   2 1.42
  20  0.666  0.834  0.125-   3 1.42   2 1.42   1 1.43
  21  0.166  0.334  0.625-   6 1.42   7 1.42   8 1.42
  22  0.666  0.334  0.625-   5 1.42   8 1.42   7 1.42
  23  0.166  0.834  0.625-   8 1.42   5 1.42   6 1.42
  24  0.666  0.834  0.625-   7 1.42   6 1.42   5 1.42
  25  0.334  0.166  0.375-  11 1.42  10 1.42  12 1.42
  26  0.834  0.166  0.375-  12 1.42   9 1.42  11 1.42
  27  0.334  0.666  0.375-   9 1.42  12 1.42  10 1.42
  28  0.834  0.666  0.375-  10 1.42  11 1.42   9 1.42
  29  0.334  0.166  0.875-  15 1.42  14 1.42  16 1.42
  30  0.834  0.166  0.875-  16 1.42  13 1.42  15 1.42
  31  0.334  0.666  0.875-  13 1.42  16 1.42  14 1.42
  32  0.834  0.666  0.875-  14 1.42  15 1.42  13 1.42

  LATTYP: Found a base centered orthorhombic cell.
 ALAT       =     4.9295501972
 B/A-ratio  =     1.7336081796
 C/A-ratio  =     2.8520475462

  Lattice vectors:

 A1 = (   4.9328744980,  -0.0019192860,   0.0000000000)
 A2 = (  -2.4680993993,   4.2710349859,   0.0000000000)
 A3 = (   0.0000000000,   0.0000000000,  14.0593115437)

Analysis of symmetry for initial positions (statically):
 Subroutine PRICEL returns:
 Original cell was already a primitive cell.

 Routine SETGRP: Setting up the symmetry group for a
 base centered orthorhombic supercell.

 Subroutine GETGRP returns: Found  1 space group operations
 (whereof  1 operations were pure point group operations)
 out of a pool of  8 trial point group operations.

The static configuration has the point symmetry C_1 .

Analysis of symmetry for dynamics (positions and initial velocities):
 Subroutine PRICEL returns:
 Original cell was already a primitive cell.

 Routine SETGRP: Setting up the symmetry group for a
 base centered orthorhombic supercell.

 Subroutine GETGRP returns: Found  1 space group operations
 (whereof  1 operations were pure point group operations)
 out of a pool of  8 trial point group operations.

The dynamic configuration has the point symmetry C_1 .

 KPOINTS: B4C B11C-CBC

Automatic generation of k-mesh.
Space group operators:
 irot       det(A)        alpha          n_x          n_y          n_z        tau_x        tau_y        tau_z
    1     1.000000     0.000000     1.000000     0.000000     0.000000     0.000000     0.000000     0.000000

 Subroutine IBZKPT returns following result:

 Found     76 irreducible k-points:

 Following reciprocal coordinates:
            Coordinates               Weight
  0.000000  0.000000  0.000000      1.000000
  0.166667 -0.000000  0.000000      2.000000
  0.333333 -0.000000  0.000000      2.000000
  0.500000  0.000000  0.000000      1.000000
  0.000000  0.166667  0.000000      2.000000
  0.166667  0.166667  0.000000      2.000000
  0.333333  0.166667  0.000000      2.000000
  0.500000  0.166667  0.000000      2.000000
 -0.333333  0.166667  0.000000      2.000000
 -0.166667  0.166667  0.000000      2.000000
 -0.000000  0.333333  0.000000      2.000000
  0.166667  0.333333  0.000000      2.000000
  0.333333  0.333333  0.000000      2.000000
  0.500000  0.333333  0.000000      2.000000
 -0.333333  0.333333  0.000000      2.000000
 -0.166667  0.333333  0.000000      2.000000
  0.000000  0.500000  0.000000      1.000000
  0.166667  0.500000  0.000000      2.000000
  0.333333  0.500000  0.000000      2.000000
  0.500000  0.500000  0.000000      1.000000
  0.000000  0.000000  0.250000      2.000000
  0.166667 -0.000000  0.250000      2.000000
  0.333333 -0.000000  0.250000      2.000000
  0.500000  0.000000  0.250000      2.000000
 -0.333333  0.000000  0.250000      2.000000
 -0.166667  0.000000  0.250000      2.000000
  0.000000  0.166667  0.250000      2.000000
  0.166667  0.166667  0.250000      2.000000
  0.333333  0.166667  0.250000      2.000000
  0.500000  0.166667  0.250000      2.000000
 -0.333333  0.166667  0.250000      2.000000
 -0.166667  0.166667  0.250000      2.000000
 -0.000000  0.333333  0.250000      2.000000
  0.166667  0.333333  0.250000      2.000000
  0.333333  0.333333  0.250000      2.000000
  0.500000  0.333333  0.250000      2.000000
 -0.333333  0.333333  0.250000      2.000000
 -0.166667  0.333333  0.250000      2.000000
  0.000000  0.500000  0.250000      2.000000
  0.166667  0.500000  0.250000      2.000000
  0.333333  0.500000  0.250000      2.000000
  0.500000  0.500000  0.250000      2.000000
 -0.333333  0.500000  0.250000      2.000000
 -0.166667  0.500000  0.250000      2.000000
  0.000000 -0.333333  0.250000      2.000000
  0.166667 -0.333333  0.250000      2.000000
  0.333333 -0.333333  0.250000      2.000000
  0.500000 -0.333333  0.250000      2.000000
 -0.333333 -0.333333  0.250000      2.000000
 -0.166667 -0.333333  0.250000      2.000000
  0.000000 -0.166667  0.250000      2.000000
  0.166667 -0.166667  0.250000      2.000000
  0.333333 -0.166667  0.250000      2.000000
  0.500000 -0.166667  0.250000      2.000000
 -0.333333 -0.166667  0.250000      2.000000
 -0.166667 -0.166667  0.250000      2.000000
  0.000000  0.000000  0.500000      1.000000
  0.166667 -0.000000  0.500000      2.000000
  0.333333 -0.000000  0.500000      2.000000
  0.500000  0.000000  0.500000      1.000000
  0.000000  0.166667  0.500000      2.000000
  0.166667  0.166667  0.500000      2.000000
  0.333333  0.166667  0.500000      2.000000
  0.500000  0.166667  0.500000      2.000000
 -0.333333  0.166667  0.500000      2.000000
 -0.166667  0.166667  0.500000      2.000000
 -0.000000  0.333333  0.500000      2.000000
  0.166667  0.333333  0.500000      2.000000
  0.333333  0.333333  0.500000      2.000000
  0.500000  0.333333  0.500000      2.000000
 -0.333333  0.333333  0.500000      2.000000
 -0.166667  0.333333  0.500000      2.000000
  0.000000  0.500000  0.500000      1.000000
  0.166667  0.500000  0.500000      2.000000
  0.333333  0.500000  0.500000      2.000000
  0.500000  0.500000  0.500000      1.000000

 Following cartesian coordinates:
            Coordinates               Weight
  0.000000  0.000000  0.000000      1.000000
  0.033795  0.019529  0.000000      2.000000
  0.067589  0.039058  0.000000      2.000000
  0.101384  0.058586  0.000000      1.000000
  0.000015  0.039031  0.000000      2.000000
  0.033810  0.058560  0.000000      2.000000
  0.067604  0.078089  0.000000      2.000000
  0.101399  0.097618  0.000000      2.000000
 -0.067574 -0.000026  0.000000      2.000000
 -0.033779  0.019503  0.000000      2.000000
  0.000030  0.078063  0.000000      2.000000
  0.033825  0.097591  0.000000      2.000000
  0.067619  0.117120  0.000000      2.000000
  0.101414  0.136649  0.000000      2.000000
 -0.067559  0.039005  0.000000      2.000000
 -0.033764  0.058534  0.000000      2.000000
  0.000046  0.117094  0.000000      1.000000
  0.033840  0.136623  0.000000      2.000000
  0.067635  0.156152  0.000000      2.000000
  0.101429  0.175680  0.000000      1.000000
  0.000000  0.000000  0.017782      2.000000
  0.033795  0.019529  0.017782      2.000000
  0.067589  0.039058  0.017782      2.000000
  0.101384  0.058586  0.017782      2.000000
 -0.067589 -0.039058  0.017782      2.000000
 -0.033795 -0.019529  0.017782      2.000000
  0.000015  0.039031  0.017782      2.000000
  0.033810  0.058560  0.017782      2.000000
  0.067604  0.078089  0.017782      2.000000
  0.101399  0.097618  0.017782      2.000000
 -0.067574 -0.000026  0.017782      2.000000
 -0.033779  0.019503  0.017782      2.000000
  0.000030  0.078063  0.017782      2.000000
  0.033825  0.097591  0.017782      2.000000
  0.067619  0.117120  0.017782      2.000000
  0.101414  0.136649  0.017782      2.000000
 -0.067559  0.039005  0.017782      2.000000
 -0.033764  0.058534  0.017782      2.000000
  0.000046  0.117094  0.017782      2.000000
  0.033840  0.136623  0.017782      2.000000
  0.067635  0.156152  0.017782      2.000000
  0.101429  0.175680  0.017782      2.000000
 -0.067543  0.078036  0.017782      2.000000
 -0.033749  0.097565  0.017782      2.000000
 -0.000030 -0.078063  0.017782      2.000000
  0.033764 -0.058534  0.017782      2.000000
  0.067559 -0.039005  0.017782      2.000000
  0.101353 -0.019476  0.017782      2.000000
 -0.067619 -0.117120  0.017782      2.000000
 -0.033825 -0.097591  0.017782      2.000000
 -0.000015 -0.039031  0.017782      2.000000
  0.033779 -0.019503  0.017782      2.000000
  0.067574  0.000026  0.017782      2.000000
  0.101368  0.019555  0.017782      2.000000
 -0.067604 -0.078089  0.017782      2.000000
 -0.033810 -0.058560  0.017782      2.000000
  0.000000  0.000000  0.035564      1.000000
  0.033795  0.019529  0.035564      2.000000
  0.067589  0.039058  0.035564      2.000000
  0.101384  0.058586  0.035564      1.000000
  0.000015  0.039031  0.035564      2.000000
  0.033810  0.058560  0.035564      2.000000
  0.067604  0.078089  0.035564      2.000000
  0.101399  0.097618  0.035564      2.000000
 -0.067574 -0.000026  0.035564      2.000000
 -0.033779  0.019503  0.035564      2.000000
  0.000030  0.078063  0.035564      2.000000
  0.033825  0.097591  0.035564      2.000000
  0.067619  0.117120  0.035564      2.000000
  0.101414  0.136649  0.035564      2.000000
 -0.067559  0.039005  0.035564      2.000000
 -0.033764  0.058534  0.035564      2.000000
  0.000046  0.117094  0.035564      1.000000
  0.033840  0.136623  0.035564      2.000000
  0.067635  0.156152  0.035564      2.000000
[...]

[...]

 eigenvalue-minimisations  :  8580
 total energy-change (2. order) : 0.8854840E-08  ( 0.8143881E-12)
 number of electron     128.0000010 magnetization
 augmentation part        3.0673116 magnetization

 Free energy of the ion-electron system (eV)
  alpha Z        PSCENC =       281.74243124
  Ewald energy   TEWEN  =     -3451.21587581
  -Hartree energ DENC   =     -1635.03800952
  -exchange      EXHF   =         0.00000000
  -V(xc)+E(xc)   XCENC  =       460.82667896
  PAW double counting   =      2221.93580145    -2263.25796504
  entropy T*S    EENTRO =         0.00000000
  eigenvalues    EBANDS =      -618.64574372
  atomic energy  EATOM  =      4708.80920826
  free energy    TOTEN  =      -294.84347417 eV

  energy without entropy =     -294.84347417  energy(sigma->0) =     -294.84347417

 average (electrostatic) potential at core
  the test charge radii are     0.6991
  (the norm of the test charge is              1.0000)
       1 -51.1301       2 -51.1300       3 -51.1285       4 -51.1316       5 -51.1303
       6 -51.1303       7 -51.1303       8 -51.1303       9 -51.1305      10 -51.1305
      11 -51.1305      12 -51.1304      13 -51.1305      14 -51.1305      15 -51.1305
      16 -51.1306      17 -51.1118      18 -51.1118      19 -51.1121      20 -51.1115
      21 -51.1120      22 -51.1120      23 -51.1120      24 -51.1120      25 -51.1118
      26 -51.1118      27 -51.1118      28 -51.1118      29 -51.1118      30 -51.1118
      31 -51.1118      32 -51.1118

 E-fermi :   4.2786     XC(G=0):  -9.9832     alpha+bet :-10.8478

 k-point     1 :       0.0000    0.0000    0.0000
  band No.  band energies     occupation
      1     -15.3143      2.00000
      2     -15.2133      2.00000
      3     -15.2130      2.00000
      4     -15.1070      2.00000
      5     -10.0168      2.00000
      6     -10.0062      2.00000
      7     -10.0039      2.00000
      8      -9.9780      2.00000
      9      -9.9764      2.00000
     10      -9.9664      2.00000
     11      -9.9648      2.00000
     12      -9.9648      2.00000
     13      -9.9613      2.00000
     14      -9.9419      2.00000
     15      -9.9298      2.00000
     16      -9.9267      2.00000
     17      -8.9507      2.00000
     18      -8.9495      2.00000
     19      -8.9477      2.00000
     20      -8.9273      2.00000
     21      -8.9268      2.00000
     22      -8.9248      2.00000
     23      -8.9240      2.00000
     24      -8.9240      2.00000
     25      -8.9219      2.00000
     26      -8.8923      2.00000
     27      -8.8917      2.00000
     28      -8.8897      2.00000
     29      -4.0407      2.00000
     30      -3.3383      2.00000
     31      -3.3370      2.00000
     32      -2.5000      2.00000
     33      -2.1240      2.00000
     34      -2.1219      2.00000
     35      -2.1082      2.00000
     36      -2.1061      2.00000
     37      -2.1060      2.00000
     38      -2.1051      2.00000
     39      -2.1023      2.00000
     40      -2.0903      2.00000
     41      -2.0882      2.00000
     42      -2.0873      2.00000
     43      -2.0858      2.00000
     44      -2.0707      2.00000
     45       1.2659      2.00000
     46       1.2705      2.00000
     47       1.2713      2.00000
     48       1.2747      2.00000
     49       1.2829      2.00000
     50       1.2862      2.00000
     51       1.2869      2.00000
     52       1.2915      2.00000
     53       1.6218      2.00000
     54       1.6253      2.00000
     55       1.6270      2.00000
     56       1.9172      2.00000
     57       1.9203      2.00000
     58       1.9272      2.00000
     59       1.9275      2.00000
     60       1.9277      2.00000
[...]
     70       5.9419      0.00000
     71       5.9443      0.00000
     72       5.9445      0.00000
     73       5.9466      0.00000
     74       6.3431      0.00000
     75       6.3497      0.00000
     76       6.3522      0.00000
     77       8.2319      0.00000
     78      10.5214      0.00000
     79      10.5247      0.00000
     80      11.5276      0.00000
     81      11.5314      0.00000
     82      11.5633      0.00000
     83      11.6665      0.00000
     84      11.6678      0.00000

[...]

 k-point    76 :       0.5000    0.5000    0.5000
  band No.  band energies     occupation
      1     -13.8161      2.00000
      2     -13.8136      2.00000
      3     -13.8136      2.00000
      4     -13.8107      2.00000
      5     -13.6832      2.00000
      6     -13.6807      2.00000
      7     -13.6807      2.00000
      8     -13.6777      2.00000
      9     -10.9764      2.00000
     10     -10.9748      2.00000
     11     -10.9748      2.00000
     12     -10.9731      2.00000
     13     -10.8703      2.00000
     14     -10.8687      2.00000
     15     -10.8687      2.00000
     16     -10.8669      2.00000
     17      -6.2436      2.00000
     18      -6.2393      2.00000
     19      -6.2391      2.00000
     20      -6.2391      2.00000
     21      -6.2077      2.00000
     22      -6.2042      2.00000
     23      -6.2041      2.00000
     24      -6.2041      2.00000
     25      -4.6537      2.00000
     26      -4.6537      2.00000
     27      -4.6524      2.00000
     28      -4.6503      2.00000
     29      -4.6275      2.00000
     30      -4.6275      2.00000
     31      -4.6261      2.00000
     32      -4.6229      2.00000
     33      -3.1458      2.00000
     34      -3.1454      2.00000
     35      -3.1454      2.00000
     36      -3.1405      2.00000
     37      -3.0998      2.00000
     38      -3.0994      2.00000
     39      -3.0994      2.00000
     40      -3.0931      2.00000
     41      -2.0887      2.00000
     42      -2.0863      2.00000
     43      -2.0862      2.00000
     44      -2.0840      2.00000
     45      -1.0838      2.00000
     46      -1.0810      2.00000
     47      -1.0809      2.00000
     48      -1.0786      2.00000
     49      -0.7419      2.00000
     50      -0.7318      2.00000
     51      -0.7318      2.00000
     52      -0.7303      2.00000
     53      -0.7157      2.00000
     54      -0.7105      2.00000
     55      -0.7105      2.00000
     56      -0.7087      2.00000
     57       1.1679      2.00000
     58       1.1689      2.00000
     59       1.1690      2.00000
     60       1.1721      2.00000
[...]
     70       7.2543      0.00000
     71       7.2545      0.00000
     72       7.2552      0.00000
     73      10.6131      0.00000
     74      10.6171      0.00000
     75      10.6175      0.00000
     76      10.6211      0.00000
     77      11.3850      0.00000
     78      11.3891      0.00000
     79      11.3895      0.00000
     80      11.3963      0.00000
     81      11.6702      0.00000
     82      11.6720      0.00000
     83      11.6727      0.00000
     84      11.6775      0.00000

 soft charge-density along one line, spin component           1
         0         1         2         3         4         5         6         7         8         9
 total charge-density along one line

------------------------ aborting loop because EDIFF is reached ----------------------------------------

         DFTD3 V3.0 Rev 1
 IVDW         = 12
 DF pbe
 parameters
 VDW_S6       =    1.0000
 VDW_S8       =    0.7875
 VDW_A1       =    0.4289
 VDW_A2       =    4.4407
 k1-k3        =   16.0000    1.3333   -4.0000
 VDW_RADIUS   =   50.2022 A
 VDW_CNRADIUS =   21.1671 A
 Edisp (eV)   -4.73048

 E6    (eV) :    -3.3982
 E8    (eV) :    -1.3322
 % E8        : 28.16

  FORCE on cell =-STRESS in cart. coord.  units (eV):
  Direction    XX          YY          ZZ          XY          YZ          ZX
  Alpha Z   281.74243   281.74243   281.74243
  Ewald     851.98722   851.51655 -5154.73826     0.31662     0.00059    -0.00897
  Hartree  1454.44457  1454.46278 -1273.86934     0.11876     0.00029    -0.00223
  E(xc)    -467.34458  -467.35108  -484.98302    -0.00271     0.00005    -0.00012
  Local   -3916.80254 -3916.46431  4547.77032    -0.40181    -0.00004     0.00748
  n-local  -112.48836  -112.60192  -102.57767    -0.09398     0.00077    -0.00168
  augment   -12.37340   -12.37247   -11.33919    -0.00031    -0.00001     0.00006
  Kinetic  1921.46443  1922.21549  2200.95534     0.51638    -0.01110     0.02510
  Fock        0.00000     0.00000     0.00000     0.00000     0.00000     0.00000
  vdW        -0.80037    -0.79116    -5.69364     0.00766    -0.00000    -0.00001
  Total      -0.17061     0.35632    -2.73303     0.46060    -0.00945     0.01963
  in kB      -0.92301     1.92774   -14.78618     2.49192    -0.05112     0.10618

 VOLUME and BASIS-vectors are now :
  energy-cutoff  :      600.00
  volume of cell :      296.14
      direct lattice vectors                 reciprocal lattice vectors
     4.932874498 -0.001919286  0.000000000     0.202767147  0.117172881  0.000000000
    -2.468099399  4.271034986  0.000000000     0.000091118  0.234187941  0.000000000
     0.000000000  0.000000000 14.059311544     0.000000000  0.000000000  0.071127238

  length of vectors
     4.932874871  4.932874871 14.059311544     0.234187958  0.234187958  0.071127238

 FORCES acting on ions
    electron-ion (+dipol)            ewald-force                    non-local-force                 convergence-correction
   -.846E+00 0.651E-01 0.185E+01   0.942E+00 -.594E-01 -.190E+01   0.825E-01 0.316E-02 0.175E+00   0.213E-08 0.763E-09 0.572E-07
   0.661E-01 0.670E-01 -.392E+00   -.102E+00 -.621E-01 0.374E+00   -.254E-01 0.307E-02 0.218E-01   -.211E-09 0.572E-09 0.565E-07
   -.101E+00 -.295E-01 -.392E+00   0.894E-01 0.483E-01 0.374E+00   -.152E-01 0.891E-02 0.218E-01   0.119E-08 0.150E-08 0.564E-07
   -.101E+00 0.164E+00 -.393E+00   0.897E-01 -.173E+00 0.375E+00   -.151E-01 -.299E-02 0.220E-01   0.849E-09 0.213E-10 0.564E-07
   -.114E+00 0.679E-01 0.921E-01   0.108E+00 -.622E-01 -.926E-01   -.435E-02 0.326E-02 -.251E-02   -.382E-08 0.542E-09 -.565E-07
   -.114E+00 0.679E-01 0.917E-01   0.108E+00 -.622E-01 -.921E-01   -.434E-02 0.326E-02 -.252E-02   -.356E-08 0.563E-09 -.565E-07
   -.114E+00 0.679E-01 0.917E-01   0.108E+00 -.621E-01 -.921E-01   -.434E-02 0.326E-02 -.252E-02   -.361E-08 0.499E-09 -.566E-07
   -.114E+00 0.680E-01 0.917E-01   0.108E+00 -.622E-01 -.921E-01   -.434E-02 0.327E-02 -.252E-02   -.380E-08 0.599E-09 -.565E-07
   0.118E+00 -.678E-01 0.819E-01   -.108E+00 0.590E-01 -.815E-01   0.571E-02 -.409E-02 0.261E-02   -.253E-08 0.216E-08 0.112E-07
   0.118E+00 -.738E-01 0.817E-01   -.108E+00 0.652E-01 -.814E-01   0.580E-02 -.421E-02 0.280E-02   -.395E-08 0.294E-08 0.113E-07
   0.123E+00 -.709E-01 0.817E-01   -.113E+00 0.622E-01 -.813E-01   0.586E-02 -.423E-02 0.270E-02   -.392E-08 0.348E-08 0.111E-07
   0.112E+00 -.709E-01 0.127E+00   -.102E+00 0.622E-01 -.126E+00   0.568E-02 -.418E-02 0.241E-02   -.255E-08 0.264E-08 0.112E-07
   0.117E+00 -.618E-01 0.816E-01   -.108E+00 0.589E-01 -.813E-01   0.539E-02 -.227E-02 0.266E-02   0.113E-08 -.773E-09 -.931E-08
   0.117E+00 -.682E-01 0.818E-01   -.108E+00 0.655E-01 -.813E-01   0.528E-02 -.238E-02 0.247E-02   0.113E-08 -.343E-09 -.931E-08
   0.122E+00 -.649E-01 0.817E-01   -.113E+00 0.621E-01 -.813E-01   0.544E-02 -.224E-02 0.257E-02   0.882E-09 -.106E-08 -.925E-08
   0.110E+00 -.648E-01 0.127E+00   -.101E+00 0.621E-01 -.127E+00   0.526E-02 -.230E-02 0.241E-02   0.142E-08 -.980E-09 -.941E-08
   0.198E+00 -.666E-01 -.329E+00   -.181E+00 0.622E-01 0.327E+00   0.682E-02 -.274E-02 -.992E-02   -.170E-08 -.582E-09 0.561E-07
   -.101E+00 -.597E-01 -.854E+00   0.116E+00 0.544E-01 0.887E+00   -.171E-01 -.239E-02 -.801E-01   -.367E-09 -.313E-09 0.562E-07
   0.435E+00 0.243E+00 -.858E+00   -.471E+00 -.278E+00 0.891E+00   -.981E-02 0.147E-02 -.804E-01   -.111E-08 -.106E-08 0.562E-07
   0.445E+00 -.381E+00 -.850E+00   -.482E+00 0.406E+00 0.882E+00   -.877E-02 -.749E-02 -.797E-01   -.720E-09 -.412E-09 0.562E-07
   0.112E+00 -.670E-01 0.917E-01   -.107E+00 0.620E-01 -.921E-01   0.373E-02 -.287E-02 0.756E-03   0.374E-08 -.376E-09 -.567E-07
   0.112E+00 -.670E-01 0.920E-01   -.107E+00 0.620E-01 -.923E-01   0.373E-02 -.287E-02 0.753E-03   0.360E-08 -.292E-09 -.567E-07
   0.112E+00 -.670E-01 0.920E-01   -.107E+00 0.620E-01 -.923E-01   0.373E-02 -.287E-02 0.751E-03   0.365E-08 -.683E-09 -.566E-07
   0.112E+00 -.670E-01 0.920E-01   -.107E+00 0.620E-01 -.923E-01   0.373E-02 -.287E-02 0.751E-03   0.381E-08 -.789E-09 -.565E-07
   -.133E+00 0.777E-01 0.919E-01   0.123E+00 -.696E-01 -.915E-01   -.539E-02 0.383E-02 -.103E-02   0.203E-08 -.197E-08 0.113E-07
   -.101E+00 0.809E-01 0.103E+00   0.910E-01 -.730E-01 -.103E+00   -.544E-02 0.392E-02 -.762E-03   0.420E-08 -.277E-08 0.113E-07
   -.120E+00 0.516E-01 0.972E-01   0.110E+00 -.434E-01 -.970E-01   -.549E-02 0.391E-02 -.904E-03   0.379E-08 -.350E-08 0.113E-07
   -.115E+00 0.701E-01 0.775E-01   0.105E+00 -.621E-01 -.771E-01   -.531E-02 0.389E-02 -.594E-03   0.248E-08 -.226E-08 0.113E-07
   -.983E-01 0.529E-01 0.103E+00   0.909E-01 -.507E-01 -.103E+00   -.458E-02 0.191E-02 -.857E-03   -.121E-08 0.663E-09 -.943E-08
   -.131E+00 0.565E-01 0.916E-01   0.124E+00 -.544E-01 -.912E-01   -.456E-02 0.200E-02 -.110E-02   -.155E-08 0.622E-09 -.930E-08
   -.118E+00 0.827E-01 0.972E-01   0.110E+00 -.808E-01 -.970E-01   -.464E-02 0.193E-02 -.946E-03   -.127E-08 0.112E-08 -.935E-08
   -.112E+00 0.640E-01 0.774E-01   0.105E+00 -.620E-01 -.770E-01   -.447E-02 0.195E-02 -.654E-03   -.144E-08 0.990E-09 -.927E-08
   -.428E-04 0.845E-05 0.315E-02   -.237E-13 0.202E-13 0.171E-12   0.539E-04 0.207E-06 -.309E-02   -.131E-08 0.154E-08 0.138E-07

 POSITION                                       TOTAL-FORCE (eV/Angst)
      2.46071      0.00044      1.74798         0.179343      0.008855      0.132650
      4.93046     -0.00052      1.75741        -0.062089      0.008018      0.004316
      1.22997      2.13595      1.75741        -0.026985      0.028284      0.004386
      3.69641      2.13499      1.75741        -0.027093     -0.012289      0.004332
      2.46402      0.00044      8.78707        -0.010307      0.009070     -0.002982
      4.93046     -0.00052      8.78707        -0.010328      0.009070     -0.002998
      1.22997      2.13595      8.78707        -0.010320      0.009073     -0.002998
      3.69641      2.13499      8.78707        -0.010320      0.009065     -0.002998
     -1.23163      2.13412      5.27224         0.016167     -0.012904      0.003081
      1.23481      2.13316      5.27224         0.016273     -0.012831      0.003116
     -2.46568      4.26964      5.27224         0.016159     -0.012960      0.003096
      0.00076      4.26868      5.27224         0.016280     -0.012889      0.002710
     -1.23163      2.13412     12.30190         0.014353     -0.005171      0.003045
      1.23481      2.13316     12.30190         0.014241     -0.005107      0.003004
     -2.46568      4.26964     12.30190         0.014242     -0.005031      0.003025
      0.00076      4.26868     12.30190         0.014350     -0.005082      0.002767
     -0.00332      1.42496      1.75741         0.024245     -0.007268     -0.011926
      2.46311      1.42400      1.75741        -0.001894     -0.007739     -0.047583
     -1.23737      3.56047      1.75741        -0.046024     -0.032691     -0.047202
      1.22906      3.55952      1.75741        -0.045650      0.017969     -0.047885
     -0.00332      1.42496      8.78707         0.008446     -0.007878      0.000427
      2.46311      1.42400      8.78707         0.008446     -0.007879      0.000420
     -1.23737      3.56047      8.78707         0.008445     -0.007879      0.000418
      1.22906      3.55952      8.78707         0.008444     -0.007877      0.000418
      1.23571      0.70960      5.27224        -0.015020      0.011959     -0.000680
      3.70215      0.70864      5.27224        -0.015290      0.011893     -0.000701
      0.00166      2.84512      5.27224        -0.015096      0.012150     -0.000698
      2.46810      2.84416      5.27224        -0.015220      0.012003     -0.000237
      1.23571      0.70960     12.30190        -0.012124      0.004155     -0.000730
      3.70215      0.70864     12.30190        -0.011773      0.004086     -0.000681
      0.00166      2.84512     12.30190        -0.011889      0.003806     -0.000676
      2.46810      2.84416     12.30190        -0.012012      0.004017     -0.000236
    total drift:                                0.000011      0.000009      0.000054

  FREE ENERGIE OF THE ION-ELECTRON SYSTEM (eV)
  free  energy   TOTEN  =      -299.57395185 eV

  energy  without entropy=     -299.57395185  energy(sigma->0) =     -299.57395185

 BZINTS: Fermi energy:  4.278644;128.000000 electrons
         Band energy:-618.645744;  BLOECHL correction: -0.000000