 vasp.5.3.5 31Mar14 (build Nov 02 2014 15:17:37) complex

 executed on        ion-Intel-MKL date 2016.08.14  08:45:27

 INCAR:
 POTCAR:   PAW_PBE C 08Apr2002
 POTCAR:   PAW_PBE C 08Apr2002
   VRHFIN =C: s2p2

   TITEL  = PAW_PBE C 08Apr2002
   POMASS =   12.011; ZVAL   =    4.000    mass and valenz
   ENMAX  =  400.000; ENMIN  =  300.000 eV
   QCUT   =   -5.516; QGAM   =   11.032    optimization parameters

   Description
     l     E      TYP  RCUT    TYP  RCUT
     0   .000     23  1.200
     0   .000     23  1.200
     1   .000     23  1.500
     1  2.500     23  1.500
     2   .000      7  1.500

 PAW_PBE C 08Apr2002                    :

 POSCAR: CIF file
  positions in direct lattice
  velocities in cartesian coordinates
 exchange correlation table for  LEXCH =        8
   RHO(1)=    0.500       N(1)  =     2000
   RHO(2)=  100.500       N(2)  =     4000

 ion  position               nearest neighbor table
   1  1.000  0.000  0.250-   3 1.42   3 1.43   3 1.43
   2  0.000  1.000  0.750-   4 1.42   4 1.43   4 1.43
   3  0.333  0.667  0.250-   1 1.42   1 1.43   1 1.43
   4  0.667  0.333  0.750-   2 1.42   2 1.43   2 1.43

  LATTYP: Found a base centered orthorhombic cell.
 ALAT       =     2.4712325073
 B/A-ratio  =     1.7272928269
 C/A-ratio  =     3.0994680561

  Lattice vectors:

 A1 = (   2.4661411109,   0.0029395191,   0.0000000000)
 A2 = (  -1.2305248572,   2.1372106108,   0.0000000000)
 A3 = (   0.0000000000,   0.0000000000,   7.6595062156)

Analysis of symmetry for initial positions (statically):
 Subroutine PRICEL returns:
 Original cell was already a primitive cell.

 Routine SETGRP: Setting up the symmetry group for a
 base centered orthorhombic supercell.

 Subroutine GETGRP returns: Found  8 space group operations
 (whereof  4 operations were pure point group operations)
 out of a pool of  8 trial point group operations.

The static configuration has the point symmetry C_2h.
 The point group associated with its full space group is D_2h.

Analysis of symmetry for dynamics (positions and initial velocities):
 Subroutine PRICEL returns:
 Original cell was already a primitive cell.

 Routine SETGRP: Setting up the symmetry group for a
 base centered orthorhombic supercell.

 Subroutine GETGRP returns: Found  8 space group operations
 (whereof  4 operations were pure point group operations)
 out of a pool of  8 trial point group operations.

The dynamic configuration has the point symmetry C_2h.
 The point group associated with its full space group is D_2h.

 KPOINTS: B4C B11C-CBC

Automatic generation of k-mesh.
Space group operators:
 irot       det(A)        alpha          n_x          n_y          n_z        tau_x        tau_y        tau_z
    1     1.000000     0.000000     1.000000     0.000000     0.000000     0.000000     0.000000     0.000000
    2    -1.000000     0.000000     1.000000     0.000000     0.000000     0.000000     0.000000     0.000000
    3     1.000000   180.000000    -0.500000    -0.866025     0.000000     0.000000     0.000000     0.000000
    4    -1.000000   180.000000    -0.500000    -0.866025     0.000000     0.000000     0.000000     0.000000
    5     1.000000   180.000000     0.000000     0.000000     1.000000     0.000000     0.000000     0.500000
    6    -1.000000   180.000000     0.000000     0.000000     1.000000     0.000000     0.000000     0.500000
    7     1.000000   180.000000     0.866025    -0.500000     0.000000     0.000000     0.000000     0.500000
    8    -1.000000   180.000000     0.866025    -0.500000     0.000000     0.000000     0.000000     0.500000

 Subroutine IBZKPT returns following result:

 Found    455 irreducible k-points:

 Following reciprocal coordinates:
            Coordinates               Weight
  0.000000  0.000000  0.000000      1.000000
  0.055556  0.000000  0.000000      4.000000
  0.111111  0.000000  0.000000      4.000000
  0.166667 -0.000000  0.000000      4.000000
  0.222222  0.000000  0.000000      4.000000
  0.277778  0.000000  0.000000      4.000000
  0.333333 -0.000000  0.000000      4.000000
  0.388889  0.000000  0.000000      4.000000
  0.444444  0.000000  0.000000      4.000000
  0.500000  0.000000  0.000000      2.000000
  0.055556  0.055556  0.000000      2.000000
  0.111111  0.055556  0.000000      4.000000
  0.166667  0.055556  0.000000      4.000000
  0.222222  0.055556  0.000000      4.000000
  0.277778  0.055556  0.000000      4.000000
  0.333333  0.055556  0.000000      4.000000
  0.388889  0.055556  0.000000      4.000000
  0.444444  0.055556  0.000000      4.000000
  0.500000  0.055556  0.000000      4.000000
 -0.444444  0.055556  0.000000      4.000000
 -0.388889  0.055556  0.000000      4.000000
 -0.333333  0.055556  0.000000      4.000000
 -0.277778  0.055556  0.000000      4.000000
 -0.222222  0.055556  0.000000      4.000000
 -0.166667  0.055556  0.000000      4.000000
 -0.111111  0.055556  0.000000      4.000000
 -0.055556  0.055556  0.000000      2.000000
  0.111111  0.111111  0.000000      2.000000
  0.166667  0.111111  0.000000      4.000000
  0.222222  0.111111  0.000000      4.000000
  0.277778  0.111111  0.000000      4.000000
  0.333333  0.111111  0.000000      4.000000
  0.388889  0.111111  0.000000      4.000000
  0.444444  0.111111  0.000000      4.000000
  0.500000  0.111111  0.000000      4.000000
 -0.444444  0.111111  0.000000      4.000000
 -0.388889  0.111111  0.000000      4.000000
 -0.333333  0.111111  0.000000      4.000000
 -0.277778  0.111111  0.000000      4.000000
 -0.222222  0.111111  0.000000      4.000000
 -0.166667  0.111111  0.000000      4.000000
 -0.111111  0.111111  0.000000      2.000000
  0.166667  0.166667  0.000000      2.000000
  0.222222  0.166667  0.000000      4.000000
  0.277778  0.166667  0.000000      4.000000
  0.333333  0.166667  0.000000      4.000000
  0.388889  0.166667  0.000000      4.000000
  0.444444  0.166667  0.000000      4.000000
  0.500000  0.166667  0.000000      4.000000
 -0.444444  0.166667  0.000000      4.000000
 -0.388889  0.166667  0.000000      4.000000
 -0.333333  0.166667  0.000000      4.000000
 -0.277778  0.166667  0.000000      4.000000
 -0.222222  0.166667  0.000000      4.000000
 -0.166667  0.166667  0.000000      2.000000
  0.222222  0.222222  0.000000      2.000000
  0.277778  0.222222  0.000000      4.000000
  0.333333  0.222222  0.000000      4.000000
  0.388889  0.222222  0.000000      4.000000
  0.444444  0.222222  0.000000      4.000000
[...]
  0.388889  0.333333  0.500000      4.000000
  0.444444  0.333333  0.500000      4.000000
  0.500000  0.333333  0.500000      4.000000
 -0.444444  0.333333  0.500000      4.000000
 -0.388889  0.333333  0.500000      4.000000
 -0.333333  0.333333  0.500000      2.000000
  0.388889  0.388889  0.500000      2.000000
  0.444444  0.388889  0.500000      4.000000
  0.500000  0.388889  0.500000      4.000000
 -0.444444  0.388889  0.500000      4.000000
 -0.388889  0.388889  0.500000      2.000000
  0.444444  0.444444  0.500000      2.000000
  0.500000  0.444444  0.500000      4.000000
 -0.444444  0.444444  0.500000      2.000000
  0.500000  0.500000  0.500000      1.000000

 Following cartesian coordinates:
            Coordinates               Weight
  0.000000  0.000000  0.000000      1.000000
  0.022512  0.012961  0.000000      4.000000
  0.045024  0.025923  0.000000      4.000000
  0.067536  0.038884  0.000000      4.000000
  0.090047  0.051846  0.000000      4.000000
  0.112559  0.064807  0.000000      4.000000
  0.135071  0.077769  0.000000      4.000000
  0.157583  0.090730  0.000000      4.000000
  0.180095  0.103692  0.000000      4.000000
  0.202607  0.116653  0.000000      2.000000
  0.022481  0.038938  0.000000      2.000000
  0.044993  0.051900  0.000000      4.000000
  0.067505  0.064861  0.000000      4.000000
  0.090017  0.077823  0.000000      4.000000
  0.112528  0.090784  0.000000      4.000000
  0.135040  0.103745  0.000000      4.000000
  0.157552  0.116707  0.000000      4.000000
  0.180064  0.129668  0.000000      4.000000
  0.202576  0.142630  0.000000      4.000000
 -0.180126 -0.077715  0.000000      4.000000
 -0.157614 -0.064754  0.000000      4.000000
 -0.135102 -0.051792  0.000000      4.000000
 -0.112590 -0.038831  0.000000      4.000000
 -0.090078 -0.025869  0.000000      4.000000
 -0.067567 -0.012908  0.000000      4.000000
 -0.045055  0.000054  0.000000      4.000000
 -0.022543  0.013015  0.000000      2.000000
  0.044962  0.077876  0.000000      2.000000
  0.067474  0.090838  0.000000      4.000000
  0.089986  0.103799  0.000000      4.000000
  0.112497  0.116761  0.000000      4.000000
  0.135009  0.129722  0.000000      4.000000
  0.157521  0.142684  0.000000      4.000000
  0.180033  0.155645  0.000000      4.000000
  0.202545  0.168607  0.000000      4.000000
 -0.180157 -0.051739  0.000000      4.000000
 -0.157645 -0.038777  0.000000      4.000000
 -0.135133 -0.025816  0.000000      4.000000
 -0.112621 -0.012854  0.000000      4.000000
 -0.090109  0.000107  0.000000      4.000000
 -0.067598  0.013069  0.000000      4.000000
 -0.045086  0.026030  0.000000      2.000000
  0.067443  0.116814  0.000000      2.000000
  0.089955  0.129776  0.000000      4.000000
  0.112466  0.142737  0.000000      4.000000
  0.134978  0.155699  0.000000      4.000000
  0.157490  0.168660  0.000000      4.000000
  0.180002  0.181622  0.000000      4.000000
  0.202514  0.194583  0.000000      4.000000
 -0.180188 -0.025762  0.000000      4.000000
 -0.157676 -0.012801  0.000000      4.000000
 -0.135164  0.000161  0.000000      4.000000
 -0.112652  0.013122  0.000000      4.000000
 -0.090140  0.026084  0.000000      4.000000
 -0.067629  0.039045  0.000000      2.000000
  0.089924  0.155752  0.000000      2.000000
  0.112436  0.168714  0.000000      4.000000
  0.134947  0.181675  0.000000      4.000000
  0.157459  0.194637  0.000000      4.000000
  0.179971  0.207598  0.000000      4.000000
[...]
  0.157397  0.246590  0.065278      4.000000
  0.179909  0.259551  0.065278      4.000000
  0.202421  0.272513  0.065278      4.000000
 -0.180281  0.052168  0.065278      4.000000
 -0.157769  0.065129  0.065278      4.000000
 -0.135257  0.078091  0.065278      2.000000
  0.157366  0.272567  0.065278      2.000000
  0.179878  0.285528  0.065278      4.000000
  0.202390  0.298490  0.065278      4.000000
 -0.180312  0.078144  0.065278      4.000000
 -0.157800  0.091106  0.065278      2.000000
  0.179847  0.311505  0.065278      2.000000
  0.202359  0.324466  0.065278      4.000000
 -0.180343  0.104121  0.065278      2.000000
  0.202328  0.350443  0.065278      1.000000

 TETIRR: Found   3888 inequivalent tetrahedra from    15552

 I would recommend the setting:
   dimension x,y,z NGX =    20 NGY =   20 NGZ =   61
 SYSTEM =  graphite
 POSCAR =  CIF file

 Startparameter for this run:
   NWRITE =      2    write-flag & timer
   PREC   = accura    normal or accurate (medium, high low for compatibility)
   ISTART =      0    job   : 0-new  1-cont  2-samecut
   ICHARG =      2    charge: 1-file 2-atom 10-const
   ISPIN  =      1    spin polarized calculation?
   LNONCOLLINEAR =      F non collinear calculations
   LSORBIT =      F    spin-orbit coupling
[...]
 k-point ** :   0.2222 0.1111 0.1250  plane waves:    1337
 k-point ** :   0.2778 0.1111 0.1250  plane waves:    1345
 k-point ** :   0.3333 0.1111 0.1250  plane waves:    1352
 k-point ** :   0.3889 0.1111 0.1250  plane waves:    1361
 k-point ** :   0.4444 0.1111 0.1250  plane waves:    1358
 k-point ** :   0.5000 0.1111 0.1250  plane waves:    1360
 k-point ** :  -0.4444 0.1111 0.1250  plane waves:    1354
 k-point ** :  -0.3889 0.1111 0.1250  plane waves:    1342
 k-point ** :  -0.3333 0.1111 0.1250  plane waves:    1337
 k-point ** :  -0.2778 0.1111 0.1250  plane waves:    1340
 k-point ** :  -0.2222 0.1111 0.1250  plane waves:    1340
 k-point ** :  -0.1667 0.1111 0.1250  plane waves:    1336
 k-point ** :  -0.1111 0.1111 0.1250  plane waves:    1323
 k-point ** :   0.1667 0.1667 0.1250  plane waves:    1343
 k-point ** :   0.2222 0.1667 0.1250  plane waves:    1335
 k-point ** :   0.2778 0.1667 0.1250  plane waves:    1345
 k-point ** :   0.3333 0.1667 0.1250  plane waves:    1357
 k-point ** :   0.3889 0.1667 0.1250  plane waves:    1365
 k-point ** :   0.4444 0.1667 0.1250  plane waves:    1366
 k-point ** :   0.5000 0.1667 0.1250  plane waves:    1362
 k-point ** :  -0.4444 0.1667 0.1250  plane waves:    1348
 k-point ** :  -0.3889 0.1667 0.1250  plane waves:    1335
 k-point ** :  -0.3333 0.1667 0.1250  plane waves:    1342
 k-point ** :  -0.2778 0.1667 0.1250  plane waves:    1340
 k-point ** :  -0.2222 0.1667 0.1250  plane waves:    1340
 k-point ** :  -0.1667 0.1667 0.1250  plane waves:    1342
 k-point ** :   0.2222 0.2222 0.1250  plane waves:    1347
 k-point ** :   0.2778 0.2222 0.1250  plane waves:    1359
 k-point ** :   0.3333 0.2222 0.1250  plane waves:    1368
 k-point ** :   0.3889 0.2222 0.1250  plane waves:    1363
 k-point ** :   0.4444 0.2222 0.1250  plane waves:    1368
 k-point ** :   0.5000 0.2222 0.1250  plane waves:    1359
 k-point ** :  -0.4444 0.2222 0.1250  plane waves:    1349
 k-point ** :  -0.3889 0.2222 0.1250  plane waves:    1335
 k-point ** :  -0.3333 0.2222 0.1250  plane waves:    1338
 k-point ** :  -0.2778 0.2222 0.1250  plane waves:    1343
 k-point ** :  -0.2222 0.2222 0.1250  plane waves:    1339
 k-point ** :   0.2778 0.2778 0.1250  plane waves:    1374
 k-point ** :   0.3333 0.2778 0.1250  plane waves:    1375
[...]
 k-point ** :   0.3889 0.3333 0.5000  plane waves:    1360
 k-point ** :   0.4444 0.3333 0.5000  plane waves:    1362
 k-point ** :   0.5000 0.3333 0.5000  plane waves:    1356
 k-point ** :  -0.4444 0.3333 0.5000  plane waves:    1350
 k-point ** :  -0.3889 0.3333 0.5000  plane waves:    1346
 k-point ** :  -0.3333 0.3333 0.5000  plane waves:    1348
 k-point ** :   0.3889 0.3889 0.5000  plane waves:    1366
 k-point ** :   0.4444 0.3889 0.5000  plane waves:    1348
 k-point ** :   0.5000 0.3889 0.5000  plane waves:    1352
 k-point ** :  -0.4444 0.3889 0.5000  plane waves:    1350
 k-point ** :  -0.3889 0.3889 0.5000  plane waves:    1344
 k-point ** :   0.4444 0.4444 0.5000  plane waves:    1356
 k-point ** :   0.5000 0.4444 0.5000  plane waves:    1356
 k-point ** :  -0.4444 0.4444 0.5000  plane waves:    1360
 k-point ** :   0.5000 0.5000 0.5000  plane waves:    1348

 maximum and minimum number of plane-waves per node :       467      432

 maximum number of plane-waves:      1377
 maximum index in each direction:
   IXMAX=    5   IYMAX=    4   IZMAX=   15
   IXMIN=   -5   IYMIN=   -5   IZMIN=  -15

 WARNING: aliasing errors must be expected set NGX to  22 to avoid them
 NGY is ok and might be reduce to  20
 NGZ is ok and might be reduce to  62
 aliasing errors are usually negligible using standard VASP settings
 and one can safely disregard these warnings

 parallel 3D FFT for wavefunctions:
    minimum data exchange during FFTs selected (reduces bandwidth)
 parallel 3D FFT for charge:
    minimum data exchange during FFTs selected (reduces bandwidth)

 Broyden mixing: mesh for mixing (old mesh)
   NGX =  9   NGY =  9   NGZ = 31
  (NGX  = 40   NGY  = 40   NGZ  =128)
  gives a total of   2511 points

 initial charge density was supplied:
 charge density of overlapping atoms calculated
 number of electron      16.0000000 magnetization
 keeping initial charge density in first step

 Maximum index for augmentation-charges         1375 (set IRDMAX)

 First call to EWALD:  gamma=   0.517
 Maximum number of real-space cells 4x 4x 2
 Maximum number of reciprocal cells 2x 2x 6

 FEWALD executed in parallel

----------------------------------------- Iteration    1(   1)  ---------------------------------------

 BZINTS: Fermi energy: 13.073395; 16.000000 electrons
         Band energy: -25.249062;  BLOECHL correction: -0.349899

 eigenvalue-minimisations  : 10928
 total energy-change (2. order) : 0.6402511E+02  (-0.8779019E+03)
 number of electron      16.0000000 magnetization
 augmentation part       16.0000000 magnetization

 Free energy of the ion-electron system (eV)
  alpha Z        PSCENC =        32.27066493
  Ewald energy   TEWEN  =      -373.92920802
  -Hartree energ DENC   =      -208.26723833
  -exchange      EXHF   =         0.00000000
  -V(xc)+E(xc)   XCENC  =        55.20072438
  PAW double counting   =       151.32577238     -155.92769107
  entropy T*S    EENTRO =         0.00000000
  eigenvalues    EBANDS =       -25.24906160
  atomic energy  EATOM  =       588.60115103
  free energy    TOTEN  =        64.02511371 eV

  energy without entropy =       64.02511371  energy(sigma->0) =       64.02511371

[...]

 BZINTS: Fermi energy:  2.284037; 16.000000 electrons
         Band energy:-123.577038;  BLOECHL correction: -0.000104

 eigenvalue-minimisations  : 15688
 total energy-change (2. order) :-0.9832798E+02  (-0.8993035E+02)
 number of electron      16.0000000 magnetization
 augmentation part       16.0000000 magnetization

[...]

 Broyden mixing:
  rms(total) = 0.77905E+00    rms(broyden)= 0.77896E+00
  rms(prec ) = 0.11692E+01
  weight for this iteration     100.00

[...]

 BZINTS: Fermi energy:  2.676537; 16.000000 electrons
         Band energy:-109.406608;  BLOECHL correction:  0.000000

[...]

 eigenvalues of (default mixing * dielectric matrix)
  average eigenvalue GAMMA=   2.0356
  2.0356

[...]

 average (electrostatic) potential at core
  the test charge radii are     0.6991
  (the norm of the test charge is              1.0000)
       1 -51.8472       2 -51.8472       3 -51.8405       4 -51.8405

 E-fermi :   3.5746     XC(G=0):  -9.3983     alpha+bet : -9.9400

 k-point     1 :       0.0000    0.0000    0.0000
  band No.  band energies     occupation
      1     -15.9561      2.00000
      2     -15.8566      2.00000
      3      -4.4685      2.00000
      4      -3.5188      2.00000
      5       0.5309      2.00000
      6       0.5351      2.00000
      7       0.5859      2.00000
      8       0.5901      2.00000
      9       7.0602      0.00000
     10      11.6375      0.00000
     11      11.8191      0.00000
     12      11.8424      0.00000

[...]

 soft charge-density along one line, spin component           1
         0         1         2         3         4         5         6         7         8         9
 total charge-density along one line

------------------------ aborting loop because EDIFF is reached ----------------------------------------

  FORCE on cell =-STRESS in cart. coord.  units (eV):
  Direction    XX          YY          ZZ          XY          YZ          ZX
  Alpha Z    32.27066    32.27066    32.27066
  Ewald     164.13968   162.77679  -700.84616    -1.18030    -0.00000     0.00000
  Hartree   225.04402   224.82050  -202.29078    -0.19357    -0.00000    -0.00000
  E(xc)     -58.34904   -58.35255   -60.63597    -0.00304     0.00000    -0.00000
  Local    -587.44371  -586.10647   670.99645     1.15809    -0.00000     0.00000
  n-local   -14.43264   -13.64105   -12.78720    -0.19177     0.00348    -0.00345
  augment    -1.54259    -1.54056    -1.41381     0.00176    -0.00000    -0.00000
  Kinetic   243.72879   236.19682   274.78109     2.10746    -0.05115     0.04862
  Fock        0.00000     0.00000     0.00000     0.00000     0.00000     0.00000
  Total       0.05799    -0.21868     0.07429    -0.23960    -0.00000     0.00000
  in kB       2.29966    -8.67284     2.94611    -9.50246    -0.00000     0.00000

 VOLUME and BASIS-vectors are now :
  energy-cutoff  :      600.00
  volume of cell :       40.40
      direct lattice vectors                 reciprocal lattice vectors
     2.466141111  0.002939519  0.000000000     0.405213711  0.233306695  0.000000000
    -1.230524857  2.137210611  0.000000000    -0.000557331  0.467578715  0.000000000
     0.000000000  0.000000000  7.659506216     0.000000000  0.000000000  0.130556719

[...]

 FORCES acting on ions
    electron-ion (+dipol)            ewald-force                    non-local-force                 convergence-correction
   0.802E+00 -.463E+00 -.114E-11   -.872E+00 0.504E+00 -.195E-13   -.386E-01 0.223E-01 0.000E+00   -.296E-04 0.171E-04 -.111E-12
   -.802E+00 0.463E+00 0.611E-13   0.872E+00 -.504E+00 0.195E-13   0.386E-01 -.223E-01 0.000E+00   0.296E-04 -.171E-04 0.137E-12
   -.804E+00 0.464E+00 0.727E-12   0.873E+00 -.504E+00 -.195E-13   0.382E-01 -.221E-01 0.000E+00   0.232E-04 -.134E-04 -.115E-12
   0.804E+00 -.464E+00 -.145E-11   -.873E+00 0.504E+00 0.195E-13   -.382E-01 0.221E-01 0.000E+00   -.232E-04 0.134E-04 0.137E-12
   -.683E-05 -.118E-04 -.180E-11   0.178E-14 0.888E-15 0.000E+00   0.111E-15 -.555E-16 0.000E+00   -.104E-09 -.181E-09 0.482E-13

 POSITION                                       TOTAL-FORCE (eV/Angst)
      2.46547      0.00333      1.91488        -0.109005      0.062934      0.000000
     -1.22985      2.13682      5.74463         0.109005     -0.062934     -0.000000
     -0.00094      1.42731      1.91488         0.107542     -0.062089     -0.000000
      1.23655      0.71284      5.74463        -0.107542      0.062089     -0.000000
    total drift:                               -0.000007     -0.000012     -0.000000

  FREE ENERGIE OF THE ION-ELECTRON SYSTEM (eV)
  free  energy   TOTEN  =       -36.88621936 eV

  energy  without entropy=      -36.88621936  energy(sigma->0) =      -36.88621936

[...]

 d Force =-0.4009523E-02[-0.110E-01, 0.302E-02]  d Energy =-0.3969718E-02-0.398E-04
 d Force =-0.1232477E-02[-0.268E-01, 0.243E-01]  d Ewald  =-0.1408109E-02 0.176E-03

 Steepest descent step on ions:
 trial-energy change:    0.003970  1 .order    0.004010   -0.003016    0.011035
  (g-gl).g = 0.302E-02      g.g   = 0.302E-02  gl.gl    = 0.000E+00
 g(Force)  = 0.302E-02   g(Stress)= 0.000E+00 ortho     = 0.000E+00
 gamma     =   0.00000
 trial     =   1.00000
 opt step  =   0.21756  (harmonic =   0.21466) maximal distance =0.00114406
 next E    =   -36.886548   (d E  =  -0.00033)

 FEWALD executed in parallel

[...]

 eigenvalue-minimisations  : 13332
 total energy-change (2. order) : 0.4455159E-05  (-0.8977928E-05)
 number of electron      16.0000000 magnetization
 augmentation part        0.3826956 magnetization

 Broyden mixing:
  rms(total) = 0.45193E-03    rms(broyden)= 0.45189E-03
  rms(prec ) = 0.53719E-03
  weight for this iteration     100.00

 eigenvalues of (default mixing * dielectric matrix)
  average eigenvalue GAMMA=   1.7708
  1.2100  2.4509  1.6515

[...]

----------------------------------------- Iteration    3(   5)  ---------------------------------------

 BZINTS: Fermi energy:  3.578559; 16.000000 electrons
         Band energy: -88.625497;  BLOECHL correction: -0.000003

 eigenvalue-minimisations  : 12540
 total energy-change (2. order) :-0.2084936E-06  (-0.2194266E-06)
 number of electron      16.0000000 magnetization
 augmentation part        0.3826956 magnetization

 Free energy of the ion-electron system (eV)
  alpha Z        PSCENC =        32.27066493
  Ewald energy   TEWEN  =      -373.93326663
  -Hartree energ DENC   =      -247.57038719
  -exchange      EXHF   =         0.00000000
  -V(xc)+E(xc)   XCENC  =        57.53266191
  PAW double counting   =       277.04663040     -282.20848689
  entropy T*S    EENTRO =         0.00000000
  eigenvalues    EBANDS =       -88.62549683
  atomic energy  EATOM  =       588.60115103
  free energy    TOTEN  =       -36.88652927 eV

  energy without entropy =      -36.88652927  energy(sigma->0) =      -36.88652927

 average (electrostatic) potential at core
  the test charge radii are     0.6991
  (the norm of the test charge is              1.0000)
       1 -51.8472       2 -51.8472       3 -51.8406       4 -51.8406

 E-fermi :   3.5786     XC(G=0):  -9.3983     alpha+bet : -9.9400

[...]

 k-point   455 :       0.5000    0.5000    0.5000
  band No.  band energies     occupation
      1     -10.6483      2.00000
      2     -10.6483      2.00000
      3      -9.6257      2.00000
      4      -9.6257      2.00000
      5      -2.8424      2.00000
      6      -2.8424      2.00000
      7       1.2467      2.00000
      8       1.2467      2.00000
      9       5.2478      0.00000
     10       5.2478      0.00000
     11      10.8746      0.00000
     12      10.8746      0.00000

 soft charge-density along one line, spin component           1
         0         1         2         3         4         5         6         7         8         9
 total charge-density along one line

------------------------ aborting loop because EDIFF is reached ----------------------------------------

  FORCE on cell =-STRESS in cart. coord.  units (eV):
  Direction    XX          YY          ZZ          XY          YZ          ZX
  Alpha Z    32.27066    32.27066    32.27066
  Ewald     163.56344   163.34897  -700.84616    -0.18573    -0.00000    -0.00000
  Hartree   224.96323   224.89862  -202.29123    -0.05596    -0.00000    -0.00000
  E(xc)     -58.35097   -58.35009   -60.63575     0.00077     0.00000     0.00000
  Local    -586.89741  -586.64886   670.99791     0.21524     0.00000     0.00000
  n-local   -14.43293   -13.64047   -12.78682    -0.18214     0.00349    -0.00342
  augment    -1.54163    -1.54141    -1.41378     0.00019    -0.00000     0.00000
  Kinetic   243.76916   236.15374   274.77910     1.91530    -0.05140     0.04824
  Fock        0.00000     0.00000     0.00000     0.00000     0.00000     0.00000
  Total       0.03448    -0.19975     0.07393    -0.20285     0.00000    -0.00000
  in kB       1.36741    -7.92203     2.93218    -8.04489     0.00000    -0.00000

 VOLUME and BASIS-vectors are now :
  energy-cutoff  :      600.00
  volume of cell :       40.40
      direct lattice vectors                 reciprocal lattice vectors
     2.466141111  0.002939519  0.000000000     0.405213711  0.233306695  0.000000000
    -1.230524857  2.137210611  0.000000000    -0.000557331  0.467578715  0.000000000
     0.000000000  0.000000000  7.659506216     0.000000000  0.000000000  0.130556719

  length of vectors
     2.466142863  2.466142863  7.659506216     0.467579047  0.467579047  0.130556719

 FORCES acting on ions
    electron-ion (+dipol)            ewald-force                    non-local-force                 convergence-correction
   0.470E+00 -.271E+00 0.856E-12   -.467E+00 0.270E+00 -.195E-13   0.187E-02 -.108E-02 0.000E+00   0.739E-03 -.426E-03 0.615E-12
   -.470E+00 0.271E+00 0.226E-12   0.467E+00 -.270E+00 0.195E-13   -.187E-02 0.108E-02 0.000E+00   -.739E-03 0.426E-03 -.574E-12
   -.471E+00 0.272E+00 -.149E-11   0.467E+00 -.270E+00 -.195E-13   -.233E-02 0.135E-02 -.542E-19   -.737E-03 0.426E-03 0.615E-12
   0.471E+00 -.272E+00 0.324E-13   -.467E+00 0.270E+00 0.195E-13   0.233E-02 -.135E-02 0.542E-19   0.737E-03 -.426E-03 -.577E-12
   -.679E-05 -.118E-04 -.378E-12   0.161E-14 0.722E-15 0.000E+00   -.555E-16 0.555E-16 0.000E+00   0.122E-09 0.212E-09 0.787E-13

 POSITION                                       TOTAL-FORCE (eV/Angst)
      2.46433      0.00399      1.91488         0.005553     -0.003206      0.000000
     -1.22871      2.13616      5.74463        -0.005553      0.003206      0.000000
      0.00019      1.42666      1.91488        -0.007085      0.004090     -0.000000
      1.23543      0.71349      5.74463         0.007085     -0.004090     -0.000000
    total drift:                               -0.000007     -0.000012     -0.000000

  FREE ENERGIE OF THE ION-ELECTRON SYSTEM (eV)
  free  energy   TOTEN  =       -36.88652927 eV

  energy  without entropy=      -36.88652927  energy(sigma->0) =      -36.88652927

 d Force = 0.4386129E-02[ 0.138E-03, 0.863E-02]  d Energy = 0.4279630E-02 0.106E-03
 d Force = 0.5382669E-02[-0.102E-01, 0.210E-01]  d Ewald  = 0.5466724E-02-0.841E-04

 reached required accuracy - stopping structural energy minimisation
 BZINTS: Fermi energy:  3.578559; 16.000000 electrons
         Band energy: -88.625497;  BLOECHL correction: -0.000003