 vasp.5.3.5 31Mar14 (build Nov 02 2014 15:17:37) complex

 executed on        ion-Intel-MKL date 2016.08.26  19:53:24

 INCAR:
 POTCAR:   PAW_PBE C 08Apr2002
 POTCAR:   PAW_PBE C 08Apr2002
   VRHFIN =C: s2p2

   TITEL  = PAW_PBE C 08Apr2002
   POMASS =   12.011; ZVAL   =    4.000    mass and valenz
   ENMAX  =  400.000; ENMIN  =  300.000 eV
   QCUT   =   -5.516; QGAM   =   11.032    optimization parameters

   Description
     l     E      TYP  RCUT    TYP  RCUT
     0   .000     23  1.200
     0   .000     23  1.200
     1   .000     23  1.500
     1  2.500     23  1.500
     2   .000      7  1.500

 PAW_PBE C 08Apr2002                    :

 POSCAR: CIF file
  positions in direct lattice
  velocities in cartesian coordinates
 exchange correlation table for  LEXCH =        8
   RHO(1)=    0.500       N(1)  =     2000
   RHO(2)=  100.500       N(2)  =     4000

 ion  position               nearest neighbor table
   1  0.999  0.001  0.250-   3 1.42   3 1.42   3 1.42
   2  0.001  0.999  0.750-   4 1.42   4 1.42   4 1.42
   3  0.333  0.667  0.250-   1 1.42   1 1.42   1 1.42
   4  0.667  0.333  0.750-   2 1.42   2 1.42   2 1.42

  LATTYP: Found a base centered orthorhombic cell.
 ALAT       =     2.4647750986
 B/A-ratio  =     1.7336081796
 C/A-ratio  =     2.6367986748

  Lattice vectors:

 A1 = (   2.4664372490,  -0.0009596430,   0.0000000000)
 A2 = (  -1.2340496996,   2.1355174929,   0.0000000000)
 A3 = (   0.0000000000,   0.0000000000,   6.4991157136)

Analysis of symmetry for initial positions (statically):
 Subroutine PRICEL returns:
 Original cell was already a primitive cell.

 Routine SETGRP: Setting up the symmetry group for a
 base centered orthorhombic supercell.

 Subroutine GETGRP returns: Found  8 space group operations
 (whereof  4 operations were pure point group operations)
 out of a pool of  8 trial point group operations.

The static configuration has the point symmetry C_2h.
 The point group associated with its full space group is D_2h.

Analysis of symmetry for dynamics (positions and initial velocities):
 Subroutine PRICEL returns:
 Original cell was already a primitive cell.

 Routine SETGRP: Setting up the symmetry group for a
 base centered orthorhombic supercell.

 Subroutine GETGRP returns: Found  8 space group operations
 (whereof  4 operations were pure point group operations)
 out of a pool of  8 trial point group operations.

The dynamic configuration has the point symmetry C_2h.
 The point group associated with its full space group is D_2h.

 KPOINTS: B4C B11C-CBC

Automatic generation of k-mesh.
Space group operators:
 irot       det(A)        alpha          n_x          n_y          n_z        tau_x        tau_y        tau_z
    1     1.000000     0.000000     1.000000     0.000000     0.000000     0.000000     0.000000     0.000000
    2    -1.000000     0.000000     1.000000     0.000000     0.000000     0.000000     0.000000     0.000000
    3     1.000000   179.999999    -0.500000    -0.866025     0.000000     0.000000     0.000000     0.000000
    4    -1.000000   179.999999    -0.500000    -0.866025     0.000000     0.000000     0.000000     0.000000
    5     1.000000   180.000000     0.000000     0.000000     1.000000     0.000000     0.000000     0.500000
    6    -1.000000   180.000000     0.000000     0.000000     1.000000     0.000000     0.000000     0.500000
    7     1.000000   180.000000     0.866025    -0.500000     0.000000     0.000000     0.000000     0.500000
    8    -1.000000   180.000000     0.866025    -0.500000     0.000000     0.000000     0.000000     0.500000

 Subroutine IBZKPT returns following result:

 Found    455 irreducible k-points:

 Following reciprocal coordinates:
            Coordinates               Weight
  0.000000  0.000000  0.000000      1.000000
  0.055556 -0.000000  0.000000      4.000000
  0.111111 -0.000000  0.000000      4.000000
  0.166667 -0.000000  0.000000      4.000000
  0.222222 -0.000000  0.000000      4.000000
  0.277778  0.000000  0.000000      4.000000
  0.333333  0.000000  0.000000      4.000000
  0.388889  0.000000  0.000000      4.000000
  0.444444 -0.000000  0.000000      4.000000
  0.500000 -0.000000  0.000000      2.000000
  0.055556  0.055556  0.000000      2.000000
  0.111111  0.055556  0.000000      4.000000
  0.166667  0.055556  0.000000      4.000000
  0.222222  0.055556  0.000000      4.000000
  0.277778  0.055556  0.000000      4.000000
  0.333333  0.055556  0.000000      4.000000
  0.388889  0.055556  0.000000      4.000000
  0.444444  0.055556  0.000000      4.000000
  0.500000  0.055556  0.000000      4.000000
 -0.444444  0.055556  0.000000      4.000000
 -0.388889  0.055556  0.000000      4.000000
 -0.333333  0.055556  0.000000      4.000000
 -0.277778  0.055556  0.000000      4.000000
 -0.222222  0.055556  0.000000      4.000000
 -0.166667  0.055556  0.000000      4.000000
 -0.111111  0.055556  0.000000      4.000000
 -0.055556  0.055556  0.000000      2.000000
  0.111111  0.111111  0.000000      2.000000
  0.166667  0.111111  0.000000      4.000000
  0.222222  0.111111  0.000000      4.000000
  0.277778  0.111111  0.000000      4.000000
  0.333333  0.111111  0.000000      4.000000
  0.388889  0.111111  0.000000      4.000000
  0.444444  0.111111  0.000000      4.000000
  0.500000  0.111111  0.000000      4.000000
 -0.444444  0.111111  0.000000      4.000000
 -0.388889  0.111111  0.000000      4.000000
 -0.333333  0.111111  0.000000      4.000000
 -0.277778  0.111111  0.000000      4.000000
 -0.222222  0.111111  0.000000      4.000000
 -0.166667  0.111111  0.000000      4.000000
 -0.111111  0.111111  0.000000      2.000000
  0.166667  0.166667  0.000000      2.000000
  0.222222  0.166667  0.000000      4.000000
  0.277778  0.166667  0.000000      4.000000
  0.333333  0.166667  0.000000      4.000000
  0.388889  0.166667  0.000000      4.000000
  0.444444  0.166667  0.000000      4.000000
  0.500000  0.166667  0.000000      4.000000
 -0.444444  0.166667  0.000000      4.000000
 -0.388889  0.166667  0.000000      4.000000
 -0.333333  0.166667  0.000000      4.000000
 -0.277778  0.166667  0.000000      4.000000
 -0.222222  0.166667  0.000000      4.000000
 -0.166667  0.166667  0.000000      2.000000
  0.222222  0.222222  0.000000      2.000000
  0.277778  0.222222  0.000000      4.000000
  0.333333  0.222222  0.000000      4.000000
  0.388889  0.222222  0.000000      4.000000
  0.444444  0.222222  0.000000      4.000000
[...]
  0.388889  0.333333  0.500000      4.000000
  0.444444  0.333333  0.500000      4.000000
  0.500000  0.333333  0.500000      4.000000
 -0.444444  0.333333  0.500000      4.000000
 -0.388889  0.333333  0.500000      4.000000
 -0.333333  0.333333  0.500000      2.000000
  0.388889  0.388889  0.500000      2.000000
  0.444444  0.388889  0.500000      4.000000
  0.500000  0.388889  0.500000      4.000000
 -0.444444  0.388889  0.500000      4.000000
 -0.388889  0.388889  0.500000      2.000000
  0.444444  0.444444  0.500000      2.000000
  0.500000  0.444444  0.500000      4.000000
 -0.444444  0.444444  0.500000      2.000000
  0.500000  0.500000  0.500000      1.000000

 Following cartesian coordinates:
            Coordinates               Weight
  0.000000  0.000000  0.000000      1.000000
  0.022530  0.013019  0.000000      4.000000
  0.045059  0.026038  0.000000      4.000000
  0.067589  0.039058  0.000000      4.000000
  0.090119  0.052077  0.000000      4.000000
  0.112648  0.065096  0.000000      4.000000
  0.135178  0.078115  0.000000      4.000000
  0.157708  0.091134  0.000000      4.000000
  0.180237  0.104154  0.000000      4.000000
  0.202767  0.117173  0.000000      2.000000
  0.022540  0.039040  0.000000      2.000000
  0.045069  0.052059  0.000000      4.000000
  0.067599  0.065079  0.000000      4.000000
  0.090129  0.078098  0.000000      4.000000
  0.112659  0.091117  0.000000      4.000000
  0.135188  0.104136  0.000000      4.000000
  0.157718  0.117155  0.000000      4.000000
  0.180248  0.130175  0.000000      4.000000
  0.202777  0.143194  0.000000      4.000000
 -0.180227 -0.078133  0.000000      4.000000
 -0.157698 -0.065114  0.000000      4.000000
 -0.135168 -0.052094  0.000000      4.000000
 -0.112638 -0.039075  0.000000      4.000000
 -0.090109 -0.026056  0.000000      4.000000
 -0.067579 -0.013037  0.000000      4.000000
 -0.045049 -0.000018  0.000000      4.000000
 -0.022520  0.013002  0.000000      2.000000
  0.045080  0.078080  0.000000      2.000000
  0.067609  0.091099  0.000000      4.000000
  0.090139  0.104119  0.000000      4.000000
  0.112669  0.117138  0.000000      4.000000
  0.135198  0.130157  0.000000      4.000000
  0.157728  0.143176  0.000000      4.000000
  0.180258  0.156195  0.000000      4.000000
  0.202787  0.169215  0.000000      4.000000
 -0.180217 -0.052112  0.000000      4.000000
 -0.157688 -0.039093  0.000000      4.000000
 -0.135158 -0.026073  0.000000      4.000000
 -0.112628 -0.013054  0.000000      4.000000
 -0.090098 -0.000035  0.000000      4.000000
 -0.067569  0.012984  0.000000      4.000000
 -0.045039  0.026003  0.000000      2.000000
  0.067619  0.117120  0.000000      2.000000
  0.090149  0.130139  0.000000      4.000000
  0.112679  0.143159  0.000000      4.000000
  0.135208  0.156178  0.000000      4.000000
  0.157738  0.169197  0.000000      4.000000
  0.180268  0.182216  0.000000      4.000000
  0.202798  0.195236  0.000000      4.000000
 -0.180207 -0.026091  0.000000      4.000000
 -0.157677 -0.013072  0.000000      4.000000
 -0.135148 -0.000053  0.000000      4.000000
 -0.112618  0.012967  0.000000      4.000000
 -0.090088  0.025986  0.000000      4.000000
 -0.067559  0.039005  0.000000      2.000000
  0.090159  0.156160  0.000000      2.000000
  0.112689  0.169180  0.000000      4.000000
  0.135219  0.182199  0.000000      4.000000
  0.157748  0.195218  0.000000      4.000000
  0.180278  0.208237  0.000000      4.000000
[...]
  0.157769  0.247260  0.076934      4.000000
  0.180298  0.260279  0.076934      4.000000
  0.202828  0.273298  0.076934      4.000000
 -0.180177  0.051972  0.076934      4.000000
 -0.157647  0.064991  0.076934      4.000000
 -0.135117  0.078010  0.076934      2.000000
  0.157779  0.273281  0.076934      2.000000
  0.180308  0.286300  0.076934      4.000000
  0.202838  0.299319  0.076934      4.000000
 -0.180167  0.077993  0.076934      4.000000
 -0.157637  0.091012  0.076934      2.000000
  0.180318  0.312321  0.076934      2.000000
  0.202848  0.325340  0.076934      4.000000
 -0.180156  0.104013  0.076934      2.000000
  0.202858  0.351361  0.076934      1.000000

 TETIRR: Found   3888 inequivalent tetrahedra from    15552

 I would recommend the setting:
   dimension x,y,z NGX =    20 NGY =   20 NGZ =   52
 SYSTEM =  graphite
 POSCAR =  CIF file

 Startparameter for this run:
   NWRITE =      2    write-flag & timer
   PREC   = accura    normal or accurate (medium, high low for compatibility)
   ISTART =      0    job   : 0-new  1-cont  2-samecut
   ICHARG =      2    charge: 1-file 2-atom 10-const
   ISPIN  =      1    spin polarized calculation?
   LNONCOLLINEAR =      F non collinear calculations
   LSORBIT =      F    spin-orbit coupling
[...]
 k-point 32 :   0.3333 0.1111 0.0000  plane waves:    1139
 k-point 33 :   0.3889 0.1111 0.0000  plane waves:    1147
 k-point 34 :   0.4444 0.1111 0.0000  plane waves:    1149
 k-point 35 :   0.5000 0.1111 0.0000  plane waves:    1147
 k-point 36 :  -0.4444 0.1111 0.0000  plane waves:    1139
 k-point 37 :  -0.3889 0.1111 0.0000  plane waves:    1136
 k-point 38 :  -0.3333 0.1111 0.0000  plane waves:    1133
 k-point 39 :  -0.2778 0.1111 0.0000  plane waves:    1134
 k-point 40 :  -0.2222 0.1111 0.0000  plane waves:    1127
 k-point 41 :  -0.1667 0.1111 0.0000  plane waves:    1126
 k-point 42 :  -0.1111 0.1111 0.0000  plane waves:    1121
 k-point 43 :   0.1667 0.1667 0.0000  plane waves:    1137
 k-point 44 :   0.2222 0.1667 0.0000  plane waves:    1138
 k-point 45 :   0.2778 0.1667 0.0000  plane waves:    1139
 k-point 46 :   0.3333 0.1667 0.0000  plane waves:    1153
 k-point 47 :   0.3889 0.1667 0.0000  plane waves:    1147
 k-point 48 :   0.4444 0.1667 0.0000  plane waves:    1147
 k-point 49 :   0.5000 0.1667 0.0000  plane waves:    1153
 k-point 50 :  -0.4444 0.1667 0.0000  plane waves:    1139
 k-point 51 :  -0.3889 0.1667 0.0000  plane waves:    1138
 k-point 52 :  -0.3333 0.1667 0.0000  plane waves:    1137
 k-point 53 :  -0.2778 0.1667 0.0000  plane waves:    1134
 k-point 54 :  -0.2222 0.1667 0.0000  plane waves:    1127
 k-point 55 :  -0.1667 0.1667 0.0000  plane waves:    1133
 k-point 56 :   0.2222 0.2222 0.0000  plane waves:    1147
 k-point 57 :   0.2778 0.2222 0.0000  plane waves:    1160
 k-point 58 :   0.3333 0.2222 0.0000  plane waves:    1156
 k-point 59 :   0.3889 0.2222 0.0000  plane waves:    1155
 k-point 60 :   0.4444 0.2222 0.0000  plane waves:    1160
[...]
 k-point 85 :   0.5000 0.3889 0.0000  plane waves:    1147
 k-point 86 :  -0.4444 0.3889 0.0000  plane waves:    1138
 k-point 87 :  -0.3889 0.3889 0.0000  plane waves:    1144
 k-point 88 :   0.4444 0.4444 0.0000  plane waves:    1149
 k-point 89 :   0.5000 0.4444 0.0000  plane waves:    1144
 k-point 90 :  -0.4444 0.4444 0.0000  plane waves:    1150
 k-point 91 :   0.5000 0.5000 0.0000  plane waves:    1140
 k-point 92 :   0.0000 0.0000 0.1250  plane waves:    1130
 k-point 93 :   0.0556-0.0000 0.1250  plane waves:    1123
 k-point 94 :   0.1111-0.0000 0.1250  plane waves:    1127
 k-point 95 :   0.1667-0.0000 0.1250  plane waves:    1130
 k-point 96 :   0.2222-0.0000 0.1250  plane waves:    1129
 k-point 97 :   0.2778 0.0000 0.1250  plane waves:    1133
 k-point 98 :   0.3333 0.0000 0.1250  plane waves:    1137
 k-point 99 :   0.3889 0.0000 0.1250  plane waves:    1143
 k-point ** :   0.4444-0.0000 0.1250  plane waves:    1147
 k-point ** :   0.5000-0.0000 0.1250  plane waves:    1138
 k-point ** :   0.0556 0.0556 0.1250  plane waves:    1124
 k-point ** :   0.1111 0.0556 0.1250  plane waves:    1131
 k-point ** :   0.1667 0.0556 0.1250  plane waves:    1132
 k-point ** :   0.2222 0.0556 0.1250  plane waves:    1134
 k-point ** :   0.2778 0.0556 0.1250  plane waves:    1137
 k-point ** :   0.3333 0.0556 0.1250  plane waves:    1138
 k-point ** :   0.3889 0.0556 0.1250  plane waves:    1140
 k-point ** :   0.4444 0.0556 0.1250  plane waves:    1147
 k-point ** :   0.5000 0.0556 0.1250  plane waves:    1147
 k-point ** :  -0.4444 0.0556 0.1250  plane waves:    1140
 k-point ** :  -0.3889 0.0556 0.1250  plane waves:    1140
 k-point ** :  -0.3333 0.0556 0.1250  plane waves:    1137
 k-point ** :  -0.2778 0.0556 0.1250  plane waves:    1134
 k-point ** :  -0.2222 0.0556 0.1250  plane waves:    1132
 k-point ** :  -0.1667 0.0556 0.1250  plane waves:    1133
 k-point ** :  -0.1111 0.0556 0.1250  plane waves:    1126
 k-point ** :  -0.0556 0.0556 0.1250  plane waves:    1123
 k-point ** :   0.1111 0.1111 0.1250  plane waves:    1131
 k-point ** :   0.1667 0.1111 0.1250  plane waves:    1133
 k-point ** :   0.2222 0.1111 0.1250  plane waves:    1133
 k-point ** :   0.2778 0.1111 0.1250  plane waves:    1138
 k-point ** :   0.3333 0.1111 0.1250  plane waves:    1143
 k-point ** :   0.3889 0.1111 0.1250  plane waves:    1146
 k-point ** :   0.4444 0.1111 0.1250  plane waves:    1152
 k-point ** :   0.5000 0.1111 0.1250  plane waves:    1146
 k-point ** :  -0.4444 0.1111 0.1250  plane waves:    1143
 k-point ** :  -0.3889 0.1111 0.1250  plane waves:    1140
 k-point ** :  -0.3333 0.1111 0.1250  plane waves:    1133
 k-point ** :  -0.2778 0.1111 0.1250  plane waves:    1132
 k-point ** :  -0.2222 0.1111 0.1250  plane waves:    1129
 k-point ** :  -0.1667 0.1111 0.1250  plane waves:    1133
 k-point ** :  -0.1111 0.1111 0.1250  plane waves:    1125
 k-point ** :   0.1667 0.1667 0.1250  plane waves:    1136
 k-point ** :   0.2222 0.1667 0.1250  plane waves:    1138
 k-point ** :   0.2778 0.1667 0.1250  plane waves:    1143
 k-point ** :   0.3333 0.1667 0.1250  plane waves:    1149
 k-point ** :   0.3889 0.1667 0.1250  plane waves:    1151
 k-point ** :   0.4444 0.1667 0.1250  plane waves:    1150
 k-point ** :   0.5000 0.1667 0.1250  plane waves:    1149
 k-point ** :  -0.4444 0.1667 0.1250  plane waves:    1142
 k-point ** :  -0.3889 0.1667 0.1250  plane waves:    1139
 k-point ** :  -0.3333 0.1667 0.1250  plane waves:    1135
 k-point ** :  -0.2778 0.1667 0.1250  plane waves:    1133
 k-point ** :  -0.2222 0.1667 0.1250  plane waves:    1131
 k-point ** :  -0.1667 0.1667 0.1250  plane waves:    1130
 k-point ** :   0.2222 0.2222 0.1250  plane waves:    1145
 k-point ** :   0.2778 0.2222 0.1250  plane waves:    1155
 k-point ** :   0.3333 0.2222 0.1250  plane waves:    1159
 k-point ** :   0.3889 0.2222 0.1250  plane waves:    1160
 k-point ** :   0.4444 0.2222 0.1250  plane waves:    1156
 k-point ** :   0.5000 0.2222 0.1250  plane waves:    1154
 k-point ** :  -0.4444 0.2222 0.1250  plane waves:    1144
 k-point ** :  -0.3889 0.2222 0.1250  plane waves:    1139
 k-point ** :  -0.3333 0.2222 0.1250  plane waves:    1133
 k-point ** :  -0.2778 0.2222 0.1250  plane waves:    1135
 k-point ** :  -0.2222 0.2222 0.1250  plane waves:    1131
 k-point ** :   0.2778 0.2778 0.1250  plane waves:    1158
 k-point ** :   0.3333 0.2778 0.1250  plane waves:    1165
[...]
 k-point ** :   0.3889 0.3333 0.5000  plane waves:    1158
 k-point ** :   0.4444 0.3333 0.5000  plane waves:    1152
 k-point ** :   0.5000 0.3333 0.5000  plane waves:    1152
 k-point ** :  -0.4444 0.3333 0.5000  plane waves:    1148
 k-point ** :  -0.3889 0.3333 0.5000  plane waves:    1142
 k-point ** :  -0.3333 0.3333 0.5000  plane waves:    1144
 k-point ** :   0.3889 0.3889 0.5000  plane waves:    1156
 k-point ** :   0.4444 0.3889 0.5000  plane waves:    1156
 k-point ** :   0.5000 0.3889 0.5000  plane waves:    1154
 k-point ** :  -0.4444 0.3889 0.5000  plane waves:    1146
 k-point ** :  -0.3889 0.3889 0.5000  plane waves:    1136
 k-point ** :   0.4444 0.4444 0.5000  plane waves:    1154
 k-point ** :   0.5000 0.4444 0.5000  plane waves:    1142
 k-point ** :  -0.4444 0.4444 0.5000  plane waves:    1136
 k-point ** :   0.5000 0.5000 0.5000  plane waves:    1136

 maximum and minimum number of plane-waves per node :       398      364

 maximum number of plane-waves:      1167
 maximum index in each direction:
   IXMAX=    5   IYMAX=    4   IZMAX=   12
   IXMIN=   -5   IYMIN=   -5   IZMIN=  -13

 WARNING: aliasing errors must be expected set NGX to  22 to avoid them
 NGY is ok and might be reduce to  20
 NGZ is ok and might be reduce to  52
 aliasing errors are usually negligible using standard VASP settings
 and one can safely disregard these warnings

 parallel 3D FFT for wavefunctions:
    minimum data exchange during FFTs selected (reduces bandwidth)
 parallel 3D FFT for charge:
    minimum data exchange during FFTs selected (reduces bandwidth)

 Broyden mixing: mesh for mixing (old mesh)
   NGX =  9   NGY =  9   NGZ = 25
  (NGX  = 40   NGY  = 40   NGZ  =108)
  gives a total of   2025 points

 initial charge density was supplied:
 charge density of overlapping atoms calculated
 number of electron      16.0000000 magnetization
 keeping initial charge density in first step

 Maximum index for augmentation-charges         1371 (set IRDMAX)

 First call to EWALD:  gamma=   0.546
 Maximum number of real-space cells 4x 4x 2
 Maximum number of reciprocal cells 2x 2x 5

 FEWALD executed in parallel

----------------------------------------- Iteration    1(   1)  ---------------------------------------

 BZINTS: Fermi energy: 14.255436; 16.000000 electrons
         Band energy:  -6.746195;  BLOECHL correction: -0.576385

 eigenvalue-minimisations  : 10936
 total energy-change (2. order) : 0.5453420E+02  (-0.9041866E+03)
 number of electron      16.0000000 magnetization
 augmentation part       16.0000000 magnetization

 Free energy of the ion-electron system (eV)
  alpha Z        PSCENC =        38.09272667
  Ewald energy   TEWEN  =      -480.03808093
  -Hartree energ DENC   =      -136.22105582
  -exchange      EXHF   =         0.00000000
  -V(xc)+E(xc)   XCENC  =        55.44757771
  PAW double counting   =       151.32577238     -155.92769107
  entropy T*S    EENTRO =         0.00000000
  eigenvalues    EBANDS =        -6.74619512
  atomic energy  EATOM  =       588.60115103
  free energy    TOTEN  =        54.53420487 eV

  energy without entropy =       54.53420487  energy(sigma->0) =       54.53420487

[...]

 eigenvalue-minimisations  : 15280
 total energy-change (2. order) :-0.8960144E+02  (-0.8263959E+02)
 number of electron      16.0000000 magnetization
 augmentation part       16.0000000 magnetization

[...]

 BZINTS: Fermi energy:  3.535410; 16.000000 electrons
         Band energy:-100.375272;  BLOECHL correction: -0.000027

[...]

 BZINTS: Fermi energy:  3.532897; 16.000000 electrons
         Band energy:-100.426909;  BLOECHL correction: -0.000031

[...]

 Broyden mixing:
  rms(total) = 0.78046E+00    rms(broyden)= 0.78037E+00
  rms(prec ) = 0.12757E+01
  weight for this iteration     100.00

[...]

 eigenvalues of (default mixing * dielectric matrix)
  average eigenvalue GAMMA=   2.0350
  2.0350

[...]

 eigenvalue-minimisations  : 13052
 total energy-change (2. order) : 0.5623214E+00  (-0.1811881E+00)
 number of electron      16.0000000 magnetization
 augmentation part        0.3850800 magnetization

[...]

 Broyden mixing:
  rms(total) = 0.54147E-03    rms(broyden)= 0.54076E-03
  rms(prec ) = 0.86355E-03
  weight for this iteration     100.00

 eigenvalues of (default mixing * dielectric matrix)
  average eigenvalue GAMMA=   1.8495
  2.8360  2.4819  1.9211  1.0612  0.9472

[...]

----------------------------------------- Iteration    1(  11)  ---------------------------------------

 BZINTS: Fermi energy:  4.951883; 16.000000 electrons
         Band energy: -66.191183;  BLOECHL correction: -0.000062

 eigenvalue-minimisations  : 13264
 total energy-change (2. order) :-0.7572214E-06  (-0.2900329E-06)
 number of electron      16.0000000 magnetization
 augmentation part        0.3835347 magnetization

 Free energy of the ion-electron system (eV)
  alpha Z        PSCENC =        38.09272667
  Ewald energy   TEWEN  =      -480.03808093
  -Hartree energ DENC   =      -169.77985970
  -exchange      EXHF   =         0.00000000
  -V(xc)+E(xc)   XCENC  =        57.67757748
  PAW double counting   =       277.90306811     -283.06927452
  entropy T*S    EENTRO =         0.00000000
  eigenvalues    EBANDS =       -66.19118320
  atomic energy  EATOM  =       588.60115103
  free energy    TOTEN  =       -36.80387505 eV

  energy without entropy =      -36.80387505  energy(sigma->0) =      -36.80387505

 average (electrostatic) potential at core
  the test charge radii are     0.6991
  (the norm of the test charge is              1.0000)
       1 -50.4354       2 -50.4354       3 -50.3954       4 -50.3954

 E-fermi :   4.9519     XC(G=0): -10.5238     alpha+bet :-11.7333

 k-point     1 :       0.0000    0.0000    0.0000
  band No.  band energies     occupation
      1     -14.7059      2.00000
      2     -14.3235      2.00000
      3      -3.6805      2.00000
      4      -1.3759      2.00000
      5       1.9593      2.00000
      6       1.9757      2.00000
      7       1.9855      2.00000
      8       2.0011      2.00000
      9       9.5545      0.00000
     10      13.2917      0.00000
     11      13.3015      0.00000
     12      13.3593      0.00000

[...]

 k-point   455 :       0.5000    0.5000    0.5000
  band No.  band energies     occupation
      1      -9.2814      2.00000
      2      -9.2814      2.00000
      3      -8.2317      2.00000
      4      -8.2317      2.00000
      5      -1.3865      2.00000
      6      -1.3865      2.00000
      7       2.6045      2.00000
      8       2.6045      2.00000
      9       6.6112      0.00000
     10       6.6112      0.00000
     11      12.3905      0.00000
     12      12.3905      0.00000

 soft charge-density along one line, spin component           1
         0         1         2         3         4         5         6         7         8         9
 total charge-density along one line

------------------------ aborting loop because EDIFF is reached ----------------------------------------

         DFTD3 V3.0 Rev 1
 IVDW         = 12
 DF pbe
 parameters
 VDW_S6       =    1.0000
 VDW_S8       =    0.7875
 VDW_A1       =    0.4289
 VDW_A2       =    4.4407
 k1-k3        =   16.0000    1.3333   -4.0000
 VDW_RADIUS   =   50.2022 A
 VDW_CNRADIUS =   21.1671 A
 Edisp (eV)   -0.64940

 E6    (eV) :    -0.4646
 E8    (eV) :    -0.1848
 % E8        : 28.46

  FORCE on cell =-STRESS in cart. coord.  units (eV):
  Direction    XX          YY          ZZ          XY          YZ          ZX
  Alpha Z    38.09273    38.09273    38.09273
  Ewald      57.97013    57.90945  -595.91817    -0.05254    -0.00000     0.00000
  Hartree   147.26721   147.26671  -124.74363    -0.00043    -0.00000    -0.00000
  E(xc)     -58.48834   -58.48923   -60.57261    -0.00077    -0.00000     0.00000
  Local    -409.49070  -409.44104   482.79282     0.04301    -0.00000    -0.00000
  n-local   -14.43359   -13.67303   -12.86168    -0.23566     0.01339    -0.01353
  augment    -1.54745    -1.54734    -1.41767     0.00010    -0.00000     0.00000
  Kinetic   243.95384   236.63030   275.64952     2.22187    -0.17476     0.16934
  Fock        0.00000     0.00000     0.00000     0.00000     0.00000     0.00000
  vdW        -0.08870    -0.08740    -0.76198     0.00113     0.00000    -0.00000
  Total      -0.08606    -0.01767     0.25934     0.05923     0.00000     0.00000
  in kB      -4.02887    -0.82721    12.14089     2.77272     0.00000     0.00000

 VOLUME and BASIS-vectors are now :
  energy-cutoff  :      600.00
  volume of cell :       34.22
      direct lattice vectors                 reciprocal lattice vectors
     2.466437249 -0.000959643  0.000000000     0.405534294  0.234345762  0.000000000
    -1.234049700  2.135517493  0.000000000     0.000182236  0.468375882  0.000000000
     0.000000000  0.000000000  6.499115714     0.000000000  0.000000000  0.153867087

  length of vectors
     2.466437436  2.466437436  6.499115714     0.468375917  0.468375917  0.153867087

 FORCES acting on ions
    electron-ion (+dipol)            ewald-force                    non-local-force                 convergence-correction
   -.114E+00 0.657E-01 0.112E-11   0.107E+00 -.618E-01 -.177E-13   -.502E-02 0.290E-02 0.000E+00   0.874E-05 -.505E-05 -.180E-12
   0.114E+00 -.658E-01 0.339E-12   -.107E+00 0.618E-01 0.177E-13   0.502E-02 -.290E-02 0.000E+00   -.874E-05 0.505E-05 0.194E-12
   0.111E+00 -.638E-01 0.114E-11   -.106E+00 0.614E-01 -.177E-13   0.376E-02 -.217E-02 0.000E+00   0.356E-06 -.205E-06 -.181E-12
   -.111E+00 0.638E-01 -.614E-12   0.106E+00 -.614E-01 0.177E-13   -.376E-02 0.217E-02 0.000E+00   -.355E-06 0.206E-06 0.192E-12
   -.677E-05 -.117E-04 0.198E-11   -.792E-14 0.832E-14 0.000E+00   0.555E-16 0.555E-16 0.000E+00   -.244E-09 -.423E-09 0.244E-13

 POSITION                                       TOTAL-FORCE (eV/Angst)
      2.46402      0.00044      1.62478        -0.011934      0.006890      0.000000
     -1.23163      2.13412      4.87434         0.011934     -0.006890      0.000000
     -0.00332      1.42496      1.62478         0.007965     -0.004598     -0.000000
      1.23571      0.70960      4.87434        -0.007965      0.004598      0.000000
    total drift:                               -0.000007     -0.000012      0.000000

  FREE ENERGIE OF THE ION-ELECTRON SYSTEM (eV)
  free  energy   TOTEN  =       -37.45327231 eV

  energy  without entropy=      -37.45327231  energy(sigma->0) =      -37.45327231

 reached required accuracy - stopping structural energy minimisation
 BZINTS: Fermi energy:  4.951883; 16.000000 electrons
         Band energy: -66.191183;  BLOECHL correction: -0.000062