 vasp.5.3.5 31Mar14 (build Nov 02 2014 15:17:37) complex

 executed on        ion-Intel-MKL date 2016.08.23  23:25:10

 INCAR:
 POTCAR:   PAW_PBE C 08Apr2002
 POTCAR:   PAW_PBE C 08Apr2002
   VRHFIN =C: s2p2

   TITEL  = PAW_PBE C 08Apr2002
   POMASS =   12.011; ZVAL   =    4.000    mass and valenz
   ENMAX  =  400.000; ENMIN  =  300.000 eV
   QCUT   =   -5.516; QGAM   =   11.032    optimization parameters

   Description
     l     E      TYP  RCUT    TYP  RCUT
     0   .000     23  1.200
     0   .000     23  1.200
     1   .000     23  1.500
     1  2.500     23  1.500
     2   .000      7  1.500

 PAW_PBE C 08Apr2002                    :

 POSCAR: CIF file
  positions in direct lattice
  velocities in cartesian coordinates
 exchange correlation table for  LEXCH =        8
   RHO(1)=    0.500       N(1)  =     2000
   RHO(2)=  100.500       N(2)  =     4000

 ion  position               nearest neighbor table
   1  1.000  0.000  0.250-   3 1.42   3 1.42   3 1.42   2 1.51   2 1.51
   2  0.000  1.000  0.750-   4 1.42   4 1.42   4 1.42   1 1.51   1 1.51
   3  0.333  0.667  0.250-   1 1.42   1 1.42   1 1.42
   4  0.667  0.333  0.750-   2 1.42   2 1.42   2 1.42

  LATTYP: Found a base centered orthorhombic cell.
 ALAT       =     2.4669628383
 B/A-ratio  =     1.7322311103
 C/A-ratio  =     1.2268462224

  Lattice vectors:

 A1 = (   2.4671554424,  -0.0001112000,   0.0000000000)
 A2 = (  -1.2336740232,   2.1365636881,   0.0000000000)
 A3 = (   0.0000000000,   0.0000000000,   3.0265840390)

Analysis of symmetry for initial positions (statically):
 Subroutine PRICEL returns:
 Original cell was already a primitive cell.

 Routine SETGRP: Setting up the symmetry group for a
 base centered orthorhombic supercell.

 Subroutine GETGRP returns: Found  8 space group operations
 (whereof  4 operations were pure point group operations)
 out of a pool of  8 trial point group operations.

The static configuration has the point symmetry C_2h.
 The point group associated with its full space group is D_2h.

Analysis of symmetry for dynamics (positions and initial velocities):
 Subroutine PRICEL returns:
 Original cell was already a primitive cell.

 Routine SETGRP: Setting up the symmetry group for a
 base centered orthorhombic supercell.

 Subroutine GETGRP returns: Found  8 space group operations
 (whereof  4 operations were pure point group operations)
 out of a pool of  8 trial point group operations.

The dynamic configuration has the point symmetry C_2h.
 The point group associated with its full space group is D_2h.

 KPOINTS: B4C B11C-CBC

Automatic generation of k-mesh.
Space group operators:
 irot       det(A)        alpha          n_x          n_y          n_z        tau_x        tau_y        tau_z
    1     1.000000     0.000000     1.000000     0.000000     0.000000     0.000000     0.000000     0.000000
    2    -1.000000     0.000000     1.000000     0.000000     0.000000     0.000000     0.000000     0.000000
    3     1.000000   180.000000    -0.500000    -0.866025     0.000000     0.000000     0.000000     0.000000
    4    -1.000000   180.000000    -0.500000    -0.866025     0.000000     0.000000     0.000000     0.000000
    5     1.000000   180.000000     0.000000     0.000000     1.000000     0.000000     0.000000     0.500000
    6    -1.000000   180.000000     0.000000     0.000000     1.000000     0.000000     0.000000     0.500000
    7     1.000000   180.000000     0.866025    -0.500000     0.000000     0.000000     0.000000     0.500000
    8    -1.000000   180.000000     0.866025    -0.500000     0.000000     0.000000     0.000000     0.500000

 Subroutine IBZKPT returns following result:

 Found    455 irreducible k-points:

 Following reciprocal coordinates:
            Coordinates               Weight
  0.000000  0.000000  0.000000      1.000000
  0.055556  0.000000  0.000000      4.000000
  0.111111  0.000000  0.000000      4.000000
  0.166667  0.000000  0.000000      4.000000
  0.222222  0.000000  0.000000      4.000000
  0.277778  0.000000  0.000000      4.000000
  0.333333  0.000000  0.000000      4.000000
  0.388889  0.000000  0.000000      4.000000
  0.444444  0.000000  0.000000      4.000000
  0.500000  0.000000  0.000000      2.000000
  0.055556  0.055556  0.000000      2.000000
  0.111111  0.055556  0.000000      4.000000
  0.166667  0.055556  0.000000      4.000000
  0.222222  0.055556  0.000000      4.000000
  0.277778  0.055556  0.000000      4.000000
  0.333333  0.055556  0.000000      4.000000
  0.388889  0.055556  0.000000      4.000000
  0.444444  0.055556  0.000000      4.000000
  0.500000  0.055556  0.000000      4.000000
 -0.444444  0.055556  0.000000      4.000000
 -0.388889  0.055556  0.000000      4.000000
 -0.333333  0.055556  0.000000      4.000000
 -0.277778  0.055556  0.000000      4.000000
 -0.222222  0.055556  0.000000      4.000000
 -0.166667  0.055556  0.000000      4.000000
 -0.111111  0.055556  0.000000      4.000000
 -0.055556  0.055556  0.000000      2.000000
  0.111111  0.111111  0.000000      2.000000
  0.166667  0.111111  0.000000      4.000000
  0.222222  0.111111  0.000000      4.000000
  0.277778  0.111111  0.000000      4.000000
  0.333333  0.111111  0.000000      4.000000
  0.388889  0.111111  0.000000      4.000000
  0.444444  0.111111  0.000000      4.000000
  0.500000  0.111111  0.000000      4.000000
 -0.444444  0.111111  0.000000      4.000000
 -0.388889  0.111111  0.000000      4.000000
 -0.333333  0.111111  0.000000      4.000000
 -0.277778  0.111111  0.000000      4.000000
 -0.222222  0.111111  0.000000      4.000000
 -0.166667  0.111111  0.000000      4.000000
 -0.111111  0.111111  0.000000      2.000000
  0.166667  0.166667  0.000000      2.000000
  0.222222  0.166667  0.000000      4.000000
  0.277778  0.166667  0.000000      4.000000
  0.333333  0.166667  0.000000      4.000000
  0.388889  0.166667  0.000000      4.000000
  0.444444  0.166667  0.000000      4.000000
  0.500000  0.166667  0.000000      4.000000
 -0.444444  0.166667  0.000000      4.000000
 -0.388889  0.166667  0.000000      4.000000
 -0.333333  0.166667  0.000000      4.000000
 -0.277778  0.166667  0.000000      4.000000
 -0.222222  0.166667  0.000000      4.000000
 -0.166667  0.166667  0.000000      2.000000
  0.222222  0.222222  0.000000      2.000000
  0.277778  0.222222  0.000000      4.000000
  0.333333  0.222222  0.000000      4.000000
  0.388889  0.222222  0.000000      4.000000
  0.444444  0.222222  0.000000      4.000000
[...]
  0.388889  0.333333  0.500000      4.000000
  0.444444  0.333333  0.500000      4.000000
  0.500000  0.333333  0.500000      4.000000
 -0.444444  0.333333  0.500000      4.000000
 -0.388889  0.333333  0.500000      4.000000
 -0.333333  0.333333  0.500000      2.000000
  0.388889  0.388889  0.500000      2.000000
  0.444444  0.388889  0.500000      4.000000
  0.500000  0.388889  0.500000      4.000000
 -0.444444  0.388889  0.500000      4.000000
 -0.388889  0.388889  0.500000      2.000000
  0.444444  0.444444  0.500000      2.000000
  0.500000  0.444444  0.500000      4.000000
 -0.444444  0.444444  0.500000      2.000000
  0.500000  0.500000  0.500000      1.000000

 Following cartesian coordinates:
            Coordinates               Weight
  0.000000  0.000000  0.000000      1.000000
  0.022519  0.013002  0.000000      4.000000
  0.045037  0.026005  0.000000      4.000000
  0.067556  0.039007  0.000000      4.000000
  0.090075  0.052010  0.000000      4.000000
  0.112593  0.065012  0.000000      4.000000
  0.135112  0.078015  0.000000      4.000000
  0.157631  0.091017  0.000000      4.000000
  0.180149  0.104020  0.000000      4.000000
  0.202668  0.117022  0.000000      2.000000
  0.022520  0.039005  0.000000      2.000000
  0.045038  0.052008  0.000000      4.000000
  0.067557  0.065010  0.000000      4.000000
  0.090076  0.078013  0.000000      4.000000
  0.112594  0.091015  0.000000      4.000000
  0.135113  0.104018  0.000000      4.000000
  0.157632  0.117020  0.000000      4.000000
  0.180150  0.130023  0.000000      4.000000
  0.202669  0.143025  0.000000      4.000000
 -0.180148 -0.078017  0.000000      4.000000
 -0.157629 -0.065015  0.000000      4.000000
 -0.135111 -0.052012  0.000000      4.000000
 -0.112592 -0.039010  0.000000      4.000000
 -0.090073 -0.026007  0.000000      4.000000
 -0.067555 -0.013005  0.000000      4.000000
 -0.045036 -0.000002  0.000000      4.000000
 -0.022517  0.013000  0.000000      2.000000
  0.045040  0.078011  0.000000      2.000000
  0.067558  0.091013  0.000000      4.000000
  0.090077  0.104016  0.000000      4.000000
  0.112596  0.117018  0.000000      4.000000
  0.135114  0.130021  0.000000      4.000000
  0.157633  0.143023  0.000000      4.000000
  0.180152  0.156026  0.000000      4.000000
  0.202670  0.169028  0.000000      4.000000
 -0.180147 -0.052014  0.000000      4.000000
 -0.157628 -0.039012  0.000000      4.000000
 -0.135110 -0.026009  0.000000      4.000000
 -0.112591 -0.013007  0.000000      4.000000
 -0.090072 -0.000004  0.000000      4.000000
 -0.067554  0.012998  0.000000      4.000000
 -0.045035  0.026001  0.000000      2.000000
  0.067559  0.117016  0.000000      2.000000
  0.090078  0.130019  0.000000      4.000000
  0.112597  0.143021  0.000000      4.000000
  0.135115  0.156024  0.000000      4.000000
  0.157634  0.169026  0.000000      4.000000
  0.180153  0.182029  0.000000      4.000000
  0.202671  0.195031  0.000000      4.000000
 -0.180146 -0.026011  0.000000      4.000000
 -0.157627 -0.013009  0.000000      4.000000
 -0.135108 -0.000006  0.000000      4.000000
 -0.112590  0.012996  0.000000      4.000000
 -0.090071  0.025999  0.000000      4.000000
 -0.067552  0.039001  0.000000      2.000000
  0.090079  0.156022  0.000000      2.000000
  0.112598  0.169024  0.000000      4.000000
  0.135117  0.182027  0.000000      4.000000
  0.157635  0.195029  0.000000      4.000000
  0.180154  0.208032  0.000000      4.000000
[...]
  0.157638  0.247035  0.165203      4.000000
  0.180156  0.260038  0.165203      4.000000
  0.202675  0.273040  0.165203      4.000000
 -0.180142  0.051998  0.165203      4.000000
 -0.157623  0.065000  0.165203      4.000000
 -0.135105  0.078003  0.165203      2.000000
  0.157639  0.273038  0.165203      2.000000
  0.180157  0.286041  0.165203      4.000000
  0.202676  0.299043  0.165203      4.000000
 -0.180141  0.078001  0.165203      4.000000
 -0.157622  0.091003  0.165203      2.000000
  0.180159  0.312044  0.165203      2.000000
  0.202677  0.325046  0.165203      4.000000
 -0.180140  0.104004  0.165203      2.000000
  0.202678  0.351049  0.165203      1.000000

 TETIRR: Found   3888 inequivalent tetrahedra from    15552

 I would recommend the setting:
   dimension x,y,z NGX =    20 NGY =   20 NGZ =   24
 SYSTEM =  graphite
 POSCAR =  CIF file

 Startparameter for this run:
   NWRITE =      2    write-flag & timer
   PREC   = accura    normal or accurate (medium, high low for compatibility)
   ISTART =      0    job   : 0-new  1-cont  2-samecut
   ICHARG =      2    charge: 1-file 2-atom 10-const
   ISPIN  =      1    spin polarized calculation?
   LNONCOLLINEAR =      F non collinear calculations
[...]
 k-point 29 :   0.1667 0.1111 0.0000  plane waves:     520
 k-point 30 :   0.2222 0.1111 0.0000  plane waves:     521
 k-point 31 :   0.2778 0.1111 0.0000  plane waves:     526
 k-point 32 :   0.3333 0.1111 0.0000  plane waves:     533
 k-point 33 :   0.3889 0.1111 0.0000  plane waves:     535
 k-point 34 :   0.4444 0.1111 0.0000  plane waves:     539
 k-point 35 :   0.5000 0.1111 0.0000  plane waves:     535
 k-point 36 :  -0.4444 0.1111 0.0000  plane waves:     533
 k-point 37 :  -0.3889 0.1111 0.0000  plane waves:     526
 k-point 38 :  -0.3333 0.1111 0.0000  plane waves:     521
 k-point 39 :  -0.2778 0.1111 0.0000  plane waves:     520
 k-point 40 :  -0.2222 0.1111 0.0000  plane waves:     525
 k-point 41 :  -0.1667 0.1111 0.0000  plane waves:     520
 k-point 42 :  -0.1111 0.1111 0.0000  plane waves:     521
 k-point 43 :   0.1667 0.1667 0.0000  plane waves:     527
 k-point 44 :   0.2222 0.1667 0.0000  plane waves:     526
 k-point 45 :   0.2778 0.1667 0.0000  plane waves:     535
 k-point 46 :   0.3333 0.1667 0.0000  plane waves:     539
 k-point 47 :   0.3889 0.1667 0.0000  plane waves:     541
 k-point 48 :   0.4444 0.1667 0.0000  plane waves:     541
 k-point 49 :   0.5000 0.1667 0.0000  plane waves:     539
 k-point 50 :  -0.4444 0.1667 0.0000  plane waves:     535
 k-point 51 :  -0.3889 0.1667 0.0000  plane waves:     526
 k-point 52 :  -0.3333 0.1667 0.0000  plane waves:     527
 k-point 53 :  -0.2778 0.1667 0.0000  plane waves:     520
 k-point 54 :  -0.2222 0.1667 0.0000  plane waves:     523
 k-point 55 :  -0.1667 0.1667 0.0000  plane waves:     523
 k-point 56 :   0.2222 0.2222 0.0000  plane waves:     531
 k-point 57 :   0.2778 0.2222 0.0000  plane waves:     536
 k-point 58 :   0.3333 0.2222 0.0000  plane waves:     538
 k-point 59 :   0.3889 0.2222 0.0000  plane waves:     539
 k-point 60 :   0.4444 0.2222 0.0000  plane waves:     538
[...]
 k-point 85 :   0.5000 0.3889 0.0000  plane waves:     535
 k-point 86 :  -0.4444 0.3889 0.0000  plane waves:     538
 k-point 87 :  -0.3889 0.3889 0.0000  plane waves:     534
 k-point 88 :   0.4444 0.4444 0.0000  plane waves:     539
 k-point 89 :   0.5000 0.4444 0.0000  plane waves:     532
 k-point 90 :  -0.4444 0.4444 0.0000  plane waves:     532
 k-point 91 :   0.5000 0.5000 0.0000  plane waves:     532
 k-point 92 :   0.0000 0.0000 0.1250  plane waves:     528
 k-point 93 :   0.0556 0.0000 0.1250  plane waves:     526
 k-point 94 :   0.1111 0.0000 0.1250  plane waves:     524
 k-point 95 :   0.1667 0.0000 0.1250  plane waves:     526
 k-point 96 :   0.2222 0.0000 0.1250  plane waves:     528
 k-point 97 :   0.2778 0.0000 0.1250  plane waves:     524
 k-point 98 :   0.3333 0.0000 0.1250  plane waves:     526
 k-point 99 :   0.3889 0.0000 0.1250  plane waves:     531
 k-point ** :   0.4444 0.0000 0.1250  plane waves:     535
 k-point ** :   0.5000 0.0000 0.1250  plane waves:     526
 k-point ** :   0.0556 0.0556 0.1250  plane waves:     522
 k-point ** :   0.1111 0.0556 0.1250  plane waves:     527
 k-point ** :   0.1667 0.0556 0.1250  plane waves:     526
 k-point ** :   0.2222 0.0556 0.1250  plane waves:     529
 k-point ** :   0.2778 0.0556 0.1250  plane waves:     522
 k-point ** :   0.3333 0.0556 0.1250  plane waves:     528
 k-point ** :   0.3889 0.0556 0.1250  plane waves:     531
 k-point ** :   0.4444 0.0556 0.1250  plane waves:     535
 k-point ** :   0.5000 0.0556 0.1250  plane waves:     535
 k-point ** :  -0.4444 0.0556 0.1250  plane waves:     531
 k-point ** :  -0.3889 0.0556 0.1250  plane waves:     528
 k-point ** :  -0.3333 0.0556 0.1250  plane waves:     522
 k-point ** :  -0.2778 0.0556 0.1250  plane waves:     529
 k-point ** :  -0.2222 0.0556 0.1250  plane waves:     526
 k-point ** :  -0.1667 0.0556 0.1250  plane waves:     527
 k-point ** :  -0.1111 0.0556 0.1250  plane waves:     522
 k-point ** :  -0.0556 0.0556 0.1250  plane waves:     526
 k-point ** :   0.1111 0.1111 0.1250  plane waves:     524
 k-point ** :   0.1667 0.1111 0.1250  plane waves:     526
 k-point ** :   0.2222 0.1111 0.1250  plane waves:     524
 k-point ** :   0.2778 0.1111 0.1250  plane waves:     527
 k-point ** :   0.3333 0.1111 0.1250  plane waves:     536
 k-point ** :   0.3889 0.1111 0.1250  plane waves:     535
 k-point ** :   0.4444 0.1111 0.1250  plane waves:     538
 k-point ** :   0.5000 0.1111 0.1250  plane waves:     535
 k-point ** :  -0.4444 0.1111 0.1250  plane waves:     535
 k-point ** :  -0.3889 0.1111 0.1250  plane waves:     528
 k-point ** :  -0.3333 0.1111 0.1250  plane waves:     524
 k-point ** :  -0.2778 0.1111 0.1250  plane waves:     526
 k-point ** :  -0.2222 0.1111 0.1250  plane waves:     524
 k-point ** :  -0.1667 0.1111 0.1250  plane waves:     527
 k-point ** :  -0.1111 0.1111 0.1250  plane waves:     523
 k-point ** :   0.1667 0.1667 0.1250  plane waves:     526
 k-point ** :   0.2222 0.1667 0.1250  plane waves:     526
 k-point ** :   0.2778 0.1667 0.1250  plane waves:     535
 k-point ** :   0.3333 0.1667 0.1250  plane waves:     538
 k-point ** :   0.3889 0.1667 0.1250  plane waves:     538
 k-point ** :   0.4444 0.1667 0.1250  plane waves:     538
 k-point ** :   0.5000 0.1667 0.1250  plane waves:     538
 k-point ** :  -0.4444 0.1667 0.1250  plane waves:     535
 k-point ** :  -0.3889 0.1667 0.1250  plane waves:     526
 k-point ** :  -0.3333 0.1667 0.1250  plane waves:     526
 k-point ** :  -0.2778 0.1667 0.1250  plane waves:     526
 k-point ** :  -0.2222 0.1667 0.1250  plane waves:     526
 k-point ** :  -0.1667 0.1667 0.1250  plane waves:     526
 k-point ** :   0.2222 0.2222 0.1250  plane waves:     532
 k-point ** :   0.2778 0.2222 0.1250  plane waves:     538
 k-point ** :   0.3333 0.2222 0.1250  plane waves:     537
 k-point ** :   0.3889 0.2222 0.1250  plane waves:     540
 k-point ** :   0.4444 0.2222 0.1250  plane waves:     538
 k-point ** :   0.5000 0.2222 0.1250  plane waves:     538
 k-point ** :  -0.4444 0.2222 0.1250  plane waves:     532
 k-point ** :  -0.3889 0.2222 0.1250  plane waves:     526
 k-point ** :  -0.3333 0.2222 0.1250  plane waves:     524
 k-point ** :  -0.2778 0.2222 0.1250  plane waves:     529
 k-point ** :  -0.2222 0.2222 0.1250  plane waves:     529
 k-point ** :   0.2778 0.2778 0.1250  plane waves:     538
 k-point ** :   0.3333 0.2778 0.1250  plane waves:     542
[...]
 k-point ** :   0.3889 0.3333 0.5000  plane waves:     542
 k-point ** :   0.4444 0.3333 0.5000  plane waves:     538
 k-point ** :   0.5000 0.3333 0.5000  plane waves:     536
 k-point ** :  -0.4444 0.3333 0.5000  plane waves:     538
 k-point ** :  -0.3889 0.3333 0.5000  plane waves:     536
 k-point ** :  -0.3333 0.3333 0.5000  plane waves:     534
 k-point ** :   0.3889 0.3889 0.5000  plane waves:     538
 k-point ** :   0.4444 0.3889 0.5000  plane waves:     536
 k-point ** :   0.5000 0.3889 0.5000  plane waves:     536
 k-point ** :  -0.4444 0.3889 0.5000  plane waves:     534
 k-point ** :  -0.3889 0.3889 0.5000  plane waves:     530
 k-point ** :   0.4444 0.4444 0.5000  plane waves:     538
 k-point ** :   0.5000 0.4444 0.5000  plane waves:     540
 k-point ** :  -0.4444 0.4444 0.5000  plane waves:     530
 k-point ** :   0.5000 0.5000 0.5000  plane waves:     524

 maximum and minimum number of plane-waves per node :       200      159

 maximum number of plane-waves:       549
 maximum index in each direction:
   IXMAX=    5   IYMAX=    4   IZMAX=    6
   IXMIN=   -5   IYMIN=   -5   IZMIN=   -6

 WARNING: aliasing errors must be expected set NGX to  22 to avoid them
 NGY is ok and might be reduce to  20
 WARNING: aliasing errors must be expected set NGZ to  26 to avoid them
 aliasing errors are usually negligible using standard VASP settings
 and one can safely disregard these warnings

 parallel 3D FFT for wavefunctions:
    minimum data exchange during FFTs selected (reduces bandwidth)
 parallel 3D FFT for charge:
    minimum data exchange during FFTs selected (reduces bandwidth)

 Broyden mixing: mesh for mixing (old mesh)
   NGX =  9   NGY =  9   NGZ = 13
  (NGX  = 40   NGY  = 40   NGZ  = 48)
  gives a total of   1053 points

 initial charge density was supplied:
 charge density of overlapping atoms calculated
 number of electron      16.0000000 magnetization
 keeping initial charge density in first step

 Maximum index for augmentation-charges         1295 (set IRDMAX)

 First call to EWALD:  gamma=   0.704
 Maximum number of real-space cells 3x 3x 2
 Maximum number of reciprocal cells 3x 3x 3

 FEWALD executed in parallel

----------------------------------------- Iteration    1(   1)  ---------------------------------------

 BZINTS: Fermi energy: 24.662001; 16.000000 electrons
         Band energy: 135.063594;  BLOECHL correction: -0.530172

 eigenvalue-minimisations  : 10936
 total energy-change (2. order) : 0.4265167E+02  (-0.9849985E+03)
 number of electron      16.0000000 magnetization
 augmentation part       16.0000000 magnetization

 Free energy of the ion-electron system (eV)
  alpha Z        PSCENC =        81.71806724
  Ewald energy   TEWEN  =      -803.21329752
  -Hartree energ DENC   =       -16.70971282
  -exchange      EXHF   =         0.00000000
  -V(xc)+E(xc)   XCENC  =        61.79378735
  PAW double counting   =       151.32577238     -155.92769107
  entropy T*S    EENTRO =         0.00000000
  eigenvalues    EBANDS =       135.06359391
  atomic energy  EATOM  =       588.60115103
  free energy    TOTEN  =        42.65167051 eV

  energy without entropy =       42.65167051  energy(sigma->0) =       42.65167051

[...]

 eigenvalue-minimisations  : 14140
 total energy-change (2. order) :-0.6297082E+02  (-0.5603424E+02)
 number of electron      16.0000000 magnetization
 augmentation part       16.0000000 magnetization

[...]

 Broyden mixing:
  rms(total) = 0.75881E+00    rms(broyden)= 0.75875E+00
  rms(prec ) = 0.19213E+01
  weight for this iteration     100.00

[...]

 eigenvalues of (default mixing * dielectric matrix)
  average eigenvalue GAMMA=   2.0075
  2.0075

[...]

 eigenvalue-minimisations  : 13764
 total energy-change (2. order) : 0.4717496E-05  (-0.8033529E-06)
 number of electron      16.0000001 magnetization
 augmentation part        0.3883215 magnetization

 Broyden mixing:
  rms(total) = 0.70527E-03    rms(broyden)= 0.70500E-03
  rms(prec ) = 0.12619E-02
  weight for this iteration     100.00

 eigenvalues of (default mixing * dielectric matrix)
  average eigenvalue GAMMA=   1.8770
  0.9752  1.1835  2.6888  2.4770  2.0608

[...]

----------------------------------------- Iteration    1(  11)  ---------------------------------------

 BZINTS: Fermi energy: 17.498022; 16.000000 electrons
         Band energy:  83.764533;  BLOECHL correction: -0.101262

 eigenvalue-minimisations  :  7772
 total energy-change (2. order) :-0.4370005E-06  (-0.1016976E-06)
 number of electron      16.0000001 magnetization
 augmentation part        0.3883215 magnetization

 Free energy of the ion-electron system (eV)
  alpha Z        PSCENC =        81.71806724
  Ewald energy   TEWEN  =      -803.21329752
  -Hartree energ DENC   =       -29.45417797
  -exchange      EXHF   =         0.00000000
  -V(xc)+E(xc)   XCENC  =        63.09532464
  PAW double counting   =       320.05902310     -325.45519005
  entropy T*S    EENTRO =         0.00000000
  eigenvalues    EBANDS =        83.76453297
  atomic energy  EATOM  =       588.60115103
  free energy    TOTEN  =       -20.88456656 eV

  energy without entropy =      -20.88456656  energy(sigma->0) =      -20.88456656

 average (electrostatic) potential at core
  the test charge radii are     0.6991
  (the norm of the test charge is              1.0000)
       1 -40.6690       2 -40.6690       3 -39.9393       4 -39.9393

 E-fermi :  17.4980     XC(G=0): -15.3648     alpha+bet :-25.1707

 k-point     1 :       0.0000    0.0000    0.0000
  band No.  band energies     occupation
      1     -11.2250      2.00000
      2       0.0570      2.00000
      3       3.3251      2.00000
      4       8.7577      2.00000
      5       8.7628      2.00000
      6      12.2892      2.00000
      7      12.2912      2.00000
      8      20.1934      0.00000
      9      20.7654      0.00000
     10      22.1251      0.00000
     11      22.1253      0.00000
     12      23.1838      0.00000

[...]

 k-point   455 :       0.5000    0.5000    0.5000
  band No.  band energies     occupation
      1      -2.6147      2.00000
      2      -2.6147      2.00000
      3      -0.7118      2.00000
      4      -0.7118      2.00000
      5       7.2731      2.00000
      6       7.2731      2.00000
      7      15.3461      2.00000
      8      15.3461      2.00000
      9      19.1725      0.00000
     10      19.1725      0.00000
     11      27.3158      0.00000
     12      27.3158      0.00000

 soft charge-density along one line, spin component           1
         0         1         2         3         4         5         6         7         8         9
 total charge-density along one line

------------------------ aborting loop because EDIFF is reached ----------------------------------------

         DFTD3 V3.0 Rev 1
 IVDW         = 11
 DF pbe
 parameters
 VDW_S6       =    1.0000
 VDW_S8       =    0.7220
 VDW_SR       =    1.2170
 rs18     =    1.0000
 alpha6   =   14.0000
 alpha8   =   16.0000
 k1-k3    =   16.0000    1.3333   -4.0000
 VDW_RADIUS   =   50.2022 A
 VDW_CNRADIUS =   21.1671 A
 Edisp (eV)   -0.63572

 E6    (eV) :    -0.3809
 E8    (eV) :    -0.2548
 % E8        : 40.08

  FORCE on cell =-STRESS in cart. coord.  units (eV):
  Direction    XX          YY          ZZ          XY          YZ          ZX
  Alpha Z    81.71807    81.71807    81.71807
  Ewald    -253.47763  -253.52822  -296.20828    -0.04381     0.00000    -0.00000
  Hartree     9.50745     9.49927    10.44707    -0.00709    -0.00000    -0.00000
  E(xc)     -63.56334   -63.56348   -63.70984    -0.00012     0.00000    -0.00000
  Local     -15.68054   -15.63071    25.01667     0.04316    -0.00000    -0.00000
  n-local   -10.35673   -11.77079   -15.45847     0.40840    -0.55854     0.87737
  augment    -1.63413    -1.63406    -1.60571     0.00006     0.00000     0.00000
  Kinetic   262.90466   284.98030   311.73652    -6.37537     5.22341    -7.03833
  Fock        0.00000     0.00000     0.00000     0.00000     0.00000     0.00000
  vdW        -0.60467    -0.60467    -0.62668    -0.00000     0.00000     0.00000
  Total      19.14500    19.13383    51.30934    -0.00967    -0.00000    -0.00000
  in kB    1922.70321  1921.58153  5152.91824    -0.97140    -0.00000    -0.00000

 VOLUME and BASIS-vectors are now :
  energy-cutoff  :      600.00
  volume of cell :       15.95
      direct lattice vectors                 reciprocal lattice vectors
     2.467155442 -0.000111200  0.000000000     0.405335638  0.234045000  0.000000000
    -1.233674023  2.136563688  0.000000000     0.000021096  0.468053460  0.000000000
     0.000000000  0.000000000  3.026584039     0.000000000  0.000000000  0.330405496

  length of vectors
     2.467155445  2.467155445  3.026584039     0.468053460  0.468053460  0.330405496

 FORCES acting on ions
    electron-ion (+dipol)            ewald-force                    non-local-force                 convergence-correction
   0.382E-02 -.222E-02 0.136E-13   -.352E-02 0.201E-02 -.712E-14   -.216E-02 0.125E-02 -.139E-16   0.310E-05 -.179E-05 -.242E-14
   -.383E-02 0.220E-02 -.278E-13   0.350E-02 -.204E-02 0.857E-14   0.216E-02 -.125E-02 0.139E-16   -.310E-05 0.179E-05 0.254E-14
   -.120E-01 0.695E-02 0.242E-12   0.123E-01 -.707E-02 -.454E-14   0.293E-02 -.169E-02 0.000E+00   -.619E-05 0.357E-05 -.650E-15
   0.120E-01 -.694E-02 0.362E-12   -.123E-01 0.710E-02 0.309E-14   -.293E-02 0.169E-02 0.000E+00   0.619E-05 -.357E-05 -.257E-14
   -.992E-05 -.172E-04 0.589E-12   -.101E-14 -.222E-14 0.000E+00   0.111E-15 -.208E-16 0.000E+00   0.496E-09 0.858E-09 -.310E-14

 POSITION                                       TOTAL-FORCE (eV/Angst)
      2.46715     -0.00011      0.75665        -0.001832      0.001058      0.000000
     -1.23367      2.13656      2.26994         0.001832     -0.001058      0.000000
     -0.00019      1.42441      0.75665         0.003164     -0.001827      0.000000
      1.23367      0.71204      2.26994        -0.003164      0.001827      0.000000
    total drift:                               -0.000010     -0.000017      0.000000

  FREE ENERGIE OF THE ION-ELECTRON SYSTEM (eV)
  free  energy   TOTEN  =       -21.52028411 eV

  energy  without entropy=      -21.52028411  energy(sigma->0) =      -21.52028411

 reached required accuracy - stopping structural energy minimisation
 BZINTS: Fermi energy: 17.498022; 16.000000 electrons
         Band energy:  83.764533;  BLOECHL correction: -0.101262