 vasp.5.3.5 31Mar14 (build Nov 04 2014 22:34:45) complex

 executed on         atom-AMD-MKL date 2016.08.28  18:30:05

 INCAR:
 POTCAR:   PAW_PBE C 08Apr2002

 POTCAR:   PAW_PBE C 08Apr2002
   VRHFIN =C: s2p2

   TITEL  = PAW_PBE C 08Apr2002
   POMASS =   12.011; ZVAL   =    4.000    mass and valenz
   ENMAX  =  400.000; ENMIN  =  300.000 eV
   QCUT   =   -5.516; QGAM   =   11.032    optimization parameters

   Description
     l     E      TYP  RCUT    TYP  RCUT
     0   .000     23  1.200
     0   .000     23  1.200
     1   .000     23  1.500
     1  2.500     23  1.500
     2   .000      7  1.500

 PAW_PBE C 08Apr2002                    :

 POSCAR: C
  positions in direct lattice
 exchange correlation table for  LEXCH =        8
   RHO(1)=    0.500       N(1)  =     2000
   RHO(2)=  100.500       N(2)  =     4000

 ion  position               nearest neighbor table
   1  0.500  0.000  0.125-  18 1.42  19 1.42  20 1.42
   2  1.000  0.000  0.125-  20 1.42  17 1.42  19 1.42
   3  0.500  0.500  0.125-  20 1.42  18 1.42  17 1.43
   4  1.000  0.500  0.125-  17 1.42  19 1.42  18 1.42
   5  0.500  0.000  0.625-  22 1.42  23 1.42  24 1.42
   6  1.000  0.000  0.625-  21 1.42  24 1.42  23 1.42
   7  0.500  0.500  0.625-  24 1.42  21 1.42  22 1.42
   8  1.000  0.500  0.625-  23 1.42  22 1.42  21 1.42
   9  0.000  0.500  0.375-  27 1.42  26 1.42  28 1.42
  10  0.500  0.500  0.375-  28 1.42  25 1.42  27 1.42
  11  0.000  1.000  0.375-  25 1.42  28 1.42  26 1.42
  12  0.500  1.000  0.375-  26 1.42  27 1.42  25 1.42
  13  0.000  0.500  0.875-  31 1.42  30 1.42  32 1.42
  14  0.500  0.500  0.875-  32 1.42  29 1.42  31 1.42
  15  0.000  1.000  0.875-  29 1.42  32 1.42  30 1.42
  16  0.500  1.000  0.875-  30 1.42  31 1.42  29 1.42
  17  0.166  0.334  0.124-   4 1.42   2 1.42   3 1.43
  18  0.666  0.334  0.125-   1 1.42   4 1.42   3 1.42
  19  0.166  0.834  0.125-   4 1.42   1 1.42   2 1.42
  20  0.666  0.834  0.125-   3 1.42   2 1.42   1 1.42
  21  0.166  0.334  0.625-   6 1.42   7 1.42   8 1.42
  22  0.666  0.334  0.625-   5 1.42   8 1.42   7 1.42
  23  0.166  0.834  0.625-   8 1.42   5 1.42   6 1.42
  24  0.666  0.834  0.625-   7 1.42   6 1.42   5 1.42
  25  0.334  0.166  0.375-  11 1.42  10 1.42  12 1.42
  26  0.834  0.166  0.375-  12 1.42   9 1.42  11 1.42
  27  0.334  0.666  0.375-   9 1.42  12 1.42  10 1.42
  28  0.834  0.666  0.375-  10 1.42  11 1.42   9 1.42
  29  0.334  0.166  0.875-  15 1.42  14 1.42  16 1.42
  30  0.834  0.166  0.875-  16 1.42  13 1.42  15 1.42
  31  0.334  0.666  0.875-  13 1.42  16 1.42  14 1.42
  32  0.834  0.666  0.875-  14 1.42  15 1.42  13 1.42

  LATTYP: Found a base centered orthorhombic cell.
 ALAT       =     4.9295501972
 B/A-ratio  =     1.7336081796
 C/A-ratio  =     2.8520475462

  Lattice vectors:

 A1 = (   4.9328744980,  -0.0019192860,   0.0000000000)
 A2 = (  -2.4680993993,   4.2710349859,   0.0000000000)
 A3 = (   0.0000000000,   0.0000000000,  14.0593115437)

Analysis of symmetry for initial positions (statically):
 Subroutine PRICEL returns:
 Original cell was already a primitive cell.

 Routine SETGRP: Setting up the symmetry group for a
 base centered orthorhombic supercell.

 Subroutine GETGRP returns: Found  1 space group operations
 (whereof  1 operations were pure point group operations)
 out of a pool of  8 trial point group operations.

The static configuration has the point symmetry C_1 .

Analysis of symmetry for dynamics (positions and initial velocities):
 Subroutine PRICEL returns:
 Original cell was already a primitive cell.

 Routine SETGRP: Setting up the symmetry group for a
 base centered orthorhombic supercell.

 Subroutine GETGRP returns: Found  1 space group operations
 (whereof  1 operations were pure point group operations)
 out of a pool of  8 trial point group operations.

The dynamic configuration has the point symmetry C_1 .

 KPOINTS: B4C B11C-CBC

Automatic generation of k-mesh.
Space group operators:
 irot       det(A)        alpha          n_x          n_y          n_z        tau_x        tau_y        tau_z
    1     1.000000     0.000000     1.000000     0.000000     0.000000     0.000000     0.000000     0.000000

 Subroutine IBZKPT returns following result:

 Found    163 irreducible k-points:

 Following reciprocal coordinates:
            Coordinates               Weight
  0.000000  0.000000  0.000000      1.000000
  0.111111  0.000000  0.000000      2.000000
  0.222222  0.000000  0.000000      2.000000
  0.333333  0.000000  0.000000      2.000000
  0.444444  0.000000  0.000000      2.000000
  0.000000  0.111111  0.000000      2.000000
  0.111111  0.111111  0.000000      2.000000
  0.222222  0.111111  0.000000      2.000000
  0.333333  0.111111  0.000000      2.000000
  0.444444  0.111111  0.000000      2.000000
 -0.444444  0.111111  0.000000      2.000000
 -0.333333  0.111111  0.000000      2.000000
 -0.222222  0.111111  0.000000      2.000000
 -0.111111  0.111111  0.000000      2.000000
 -0.000000  0.222222  0.000000      2.000000
  0.111111  0.222222  0.000000      2.000000
  0.222222  0.222222  0.000000      2.000000
  0.333333  0.222222  0.000000      2.000000
  0.444444  0.222222  0.000000      2.000000
 -0.444444  0.222222  0.000000      2.000000
 -0.333333  0.222222  0.000000      2.000000
 -0.222222  0.222222  0.000000      2.000000
 -0.111111  0.222222  0.000000      2.000000
  0.000000  0.333333  0.000000      2.000000
  0.111111  0.333333  0.000000      2.000000
  0.222222  0.333333  0.000000      2.000000
  0.333333  0.333333  0.000000      2.000000
  0.444444  0.333333  0.000000      2.000000
 -0.444444  0.333333  0.000000      2.000000
 -0.333333  0.333333  0.000000      2.000000
 -0.222222  0.333333  0.000000      2.000000
 -0.111111  0.333333  0.000000      2.000000
 -0.000000  0.444444  0.000000      2.000000
  0.111111  0.444444  0.000000      2.000000
  0.222222  0.444444  0.000000      2.000000
  0.333333  0.444444  0.000000      2.000000
  0.444444  0.444444  0.000000      2.000000
 -0.444444  0.444444  0.000000      2.000000
 -0.333333  0.444444  0.000000      2.000000
 -0.222222  0.444444  0.000000      2.000000
 -0.111111  0.444444  0.000000      2.000000
  0.000000  0.000000  0.250000      2.000000
  0.111111  0.000000  0.250000      2.000000
  0.222222  0.000000  0.250000      2.000000
  0.333333  0.000000  0.250000      2.000000
  0.444444  0.000000  0.250000      2.000000
 -0.444444 -0.000000  0.250000      2.000000
 -0.333333  0.000000  0.250000      2.000000
 -0.222222 -0.000000  0.250000      2.000000
 -0.111111 -0.000000  0.250000      2.000000
  0.000000  0.111111  0.250000      2.000000
  0.111111  0.111111  0.250000      2.000000
  0.222222  0.111111  0.250000      2.000000
  0.333333  0.111111  0.250000      2.000000
  0.444444  0.111111  0.250000      2.000000
 -0.444444  0.111111  0.250000      2.000000
 -0.333333  0.111111  0.250000      2.000000
 -0.222222  0.111111  0.250000      2.000000
 -0.111111  0.111111  0.250000      2.000000
 -0.000000  0.222222  0.250000      2.000000
[...]
  0.333333  0.333333  0.500000      2.000000
  0.444444  0.333333  0.500000      2.000000
 -0.444444  0.333333  0.500000      2.000000
 -0.333333  0.333333  0.500000      2.000000
 -0.222222  0.333333  0.500000      2.000000
 -0.111111  0.333333  0.500000      2.000000
 -0.000000  0.444444  0.500000      2.000000
  0.111111  0.444444  0.500000      2.000000
  0.222222  0.444444  0.500000      2.000000
  0.333333  0.444444  0.500000      2.000000
  0.444444  0.444444  0.500000      2.000000
 -0.444444  0.444444  0.500000      2.000000
 -0.333333  0.444444  0.500000      2.000000
 -0.222222  0.444444  0.500000      2.000000
 -0.111111  0.444444  0.500000      2.000000

 Following cartesian coordinates:
            Coordinates               Weight
  0.000000  0.000000  0.000000      1.000000
  0.022530  0.013019  0.000000      2.000000
  0.045059  0.026038  0.000000      2.000000
  0.067589  0.039058  0.000000      2.000000
  0.090119  0.052077  0.000000      2.000000
  0.000010  0.026021  0.000000      2.000000
  0.022540  0.039040  0.000000      2.000000
  0.045069  0.052059  0.000000      2.000000
  0.067599  0.065079  0.000000      2.000000
  0.090129  0.078098  0.000000      2.000000
 -0.090109 -0.026056  0.000000      2.000000
 -0.067579 -0.013037  0.000000      2.000000
 -0.045049 -0.000018  0.000000      2.000000
 -0.022520  0.013002  0.000000      2.000000
  0.000020  0.052042  0.000000      2.000000
  0.022550  0.065061  0.000000      2.000000
  0.045080  0.078080  0.000000      2.000000
  0.067609  0.091099  0.000000      2.000000
  0.090139  0.104119  0.000000      2.000000
 -0.090098 -0.000035  0.000000      2.000000
 -0.067569  0.012984  0.000000      2.000000
 -0.045039  0.026003  0.000000      2.000000
 -0.022509  0.039023  0.000000      2.000000
  0.000030  0.078063  0.000000      2.000000
  0.022560  0.091082  0.000000      2.000000
  0.045090  0.104101  0.000000      2.000000
  0.067619  0.117120  0.000000      2.000000
  0.090149  0.130139  0.000000      2.000000
 -0.090088  0.025986  0.000000      2.000000
 -0.067559  0.039005  0.000000      2.000000
 -0.045029  0.052024  0.000000      2.000000
 -0.022499  0.065043  0.000000      2.000000
  0.000040  0.104084  0.000000      2.000000
  0.022570  0.117103  0.000000      2.000000
  0.045100  0.130122  0.000000      2.000000
  0.067630  0.143141  0.000000      2.000000
  0.090159  0.156160  0.000000      2.000000
 -0.090078  0.052007  0.000000      2.000000
 -0.067549  0.065026  0.000000      2.000000
 -0.045019  0.078045  0.000000      2.000000
 -0.022489  0.091064  0.000000      2.000000
  0.000000  0.000000  0.017782      2.000000
  0.022530  0.013019  0.017782      2.000000
  0.045059  0.026038  0.017782      2.000000
  0.067589  0.039058  0.017782      2.000000
  0.090119  0.052077  0.017782      2.000000
 -0.090119 -0.052077  0.017782      2.000000
 -0.067589 -0.039058  0.017782      2.000000
 -0.045059 -0.026038  0.017782      2.000000
 -0.022530 -0.013019  0.017782      2.000000
  0.000010  0.026021  0.017782      2.000000
  0.022540  0.039040  0.017782      2.000000
  0.045069  0.052059  0.017782      2.000000
  0.067599  0.065079  0.017782      2.000000
  0.090129  0.078098  0.017782      2.000000
 -0.090109 -0.026056  0.017782      2.000000
 -0.067579 -0.013037  0.017782      2.000000
 -0.045049 -0.000018  0.017782      2.000000
 -0.022520  0.013002  0.017782      2.000000
  0.000020  0.052042  0.017782      2.000000
[...]
  0.067619  0.117120  0.035564      2.000000
  0.090149  0.130139  0.035564      2.000000
 -0.090088  0.025986  0.035564      2.000000
 -0.067559  0.039005  0.035564      2.000000
 -0.045029  0.052024  0.035564      2.000000
 -0.022499  0.065043  0.035564      2.000000
  0.000040  0.104084  0.035564      2.000000
  0.022570  0.117103  0.035564      2.000000
  0.045100  0.130122  0.035564      2.000000
  0.067630  0.143141  0.035564      2.000000
  0.090159  0.156160  0.035564      2.000000
 -0.090078  0.052007  0.035564      2.000000
 -0.067549  0.065026  0.035564      2.000000
 -0.045019  0.078045  0.035564      2.000000
 -0.022489  0.091064  0.035564      2.000000

[...]

[...]

 eigenvalue-minimisations  : 18996
 total energy-change (2. order) : 0.2016513E-06  (-0.6968103E-06)
 number of electron     128.0000011 magnetization
 augmentation part        3.0673527 magnetization

 Free energy of the ion-electron system (eV)
  alpha Z        PSCENC =       281.74243124
  Ewald energy   TEWEN  =     -3451.21660747
  -Hartree energ DENC   =     -1635.09780029
  -exchange      EXHF   =         0.00000000
  -V(xc)+E(xc)   XCENC  =       460.83002570
  PAW double counting   =      2221.97947676    -2263.30127621
  entropy T*S    EENTRO =         0.00000000
  eigenvalues    EBANDS =      -618.64159136
  atomic energy  EATOM  =      4708.80920826
  free energy    TOTEN  =      -294.89613335 eV

  energy without entropy =     -294.89613335  energy(sigma->0) =     -294.89613335

 average (electrostatic) potential at core
  the test charge radii are     0.6991
  (the norm of the test charge is              1.0000)
       1 -51.1310       2 -51.1311       3 -51.1309       4 -51.1312       5 -51.1312
       6 -51.1312       7 -51.1312       8 -51.1312       9 -51.1288      10 -51.1288
      11 -51.1288      12 -51.1287      13 -51.1285      14 -51.1285      15 -51.1285
      16 -51.1286      17 -51.1114      18 -51.1113      19 -51.1128      20 -51.1098
      21 -51.1115      22 -51.1115      23 -51.1115      24 -51.1115      25 -51.1109
      26 -51.1109      27 -51.1109      28 -51.1109      29 -51.1107      30 -51.1107
      31 -51.1107      32 -51.1107

 E-fermi :   4.2791     XC(G=0):  -9.9829     alpha+bet :-10.8478

 k-point     1 :       0.0000    0.0000    0.0000
  band No.  band energies     occupation
      1     -15.3139      2.00000
      2     -15.2134      2.00000
      3     -15.2121      2.00000
      4     -15.1065      2.00000
      5     -10.0152      2.00000
      6     -10.0067      2.00000
      7     -10.0037      2.00000
      8      -9.9758      2.00000
      9      -9.9753      2.00000
     10      -9.9679      2.00000
     11      -9.9636      2.00000
     12      -9.9636      2.00000
     13      -9.9626      2.00000
     14      -9.9402      2.00000
     15      -9.9296      2.00000
     16      -9.9272      2.00000
     17      -8.9519      2.00000
     18      -8.9481      2.00000
     19      -8.9465      2.00000
     20      -8.9300      2.00000
     21      -8.9255      2.00000
     22      -8.9244      2.00000
     23      -8.9229      2.00000
     24      -8.9228      2.00000
     25      -8.9204      2.00000
     26      -8.8945      2.00000
     27      -8.8900      2.00000
     28      -8.8876      2.00000
     29      -4.0405      2.00000
     30      -3.3382      2.00000
     31      -3.3365      2.00000
     32      -2.4997      2.00000
     33      -2.1251      2.00000
     34      -2.1222      2.00000
     35      -2.1096      2.00000
     36      -2.1055      2.00000
     37      -2.1048      2.00000
     38      -2.1048      2.00000
     39      -2.1025      2.00000
     40      -2.0894      2.00000
     41      -2.0879      2.00000
     42      -2.0861      2.00000
     43      -2.0841      2.00000
     44      -2.0677      2.00000
     45       1.2576      2.00000
     46       1.2677      2.00000
     47       1.2719      2.00000
     48       1.2758      2.00000
     49       1.2831      2.00000
     50       1.2881      2.00000
     51       1.2904      2.00000
     52       1.2996      2.00000
     53       1.6238      2.00000
     54       1.6246      2.00000
     55       1.6269      2.00000
     56       1.9210      2.00000
     57       1.9219      2.00000
     58       1.9244      2.00000
     59       1.9286      2.00000
     60       1.9286      2.00000
[...]
     70       5.9436      0.00000
     71       5.9449      0.00000
     72       5.9453      0.00000
     73       5.9500      0.00000
     74       6.3393      0.00000
     75       6.3520      0.00000
     76       6.3550      0.00000
     77       8.2321      0.00000
     78      10.5219      0.00000
     79      10.5248      0.00000
     80      11.5278      0.00000
     81      11.5314      0.00000
     82      11.5650      0.00000
     83      11.6656      0.00000
     84      11.6720      0.00000

[...]

 k-point   163 :      -0.1111    0.4444    0.5000
  band No.  band energies     occupation
      1     -14.3361      2.00000
      2     -14.3359      2.00000
      3     -14.1984      2.00000
      4     -14.1982      2.00000
      5     -13.0400      2.00000
      6     -13.0398      2.00000
      7     -12.9143      2.00000
      8     -12.9140      2.00000
      9     -11.7819      2.00000
     10     -11.7818      2.00000
     11     -11.6680      2.00000
     12     -11.6678      2.00000
     13      -9.9912      2.00000
     14      -9.9910      2.00000
     15      -9.8977      2.00000
     16      -9.8975      2.00000
     17      -7.5023      2.00000
     18      -7.5006      2.00000
     19      -7.4380      2.00000
     20      -7.4363      2.00000
     21      -5.8523      2.00000
     22      -5.8509      2.00000
     23      -5.7950      2.00000
     24      -5.7937      2.00000
     25      -4.8589      2.00000
     26      -4.8573      2.00000
     27      -4.8125      2.00000
     28      -4.8111      2.00000
     29      -4.5951      2.00000
     30      -4.5947      2.00000
     31      -4.5391      2.00000
     32      -4.5387      2.00000
     33      -3.4055      2.00000
     34      -3.4038      2.00000
     35      -3.3681      2.00000
     36      -3.3662      2.00000
     37      -2.7062      2.00000
     38      -2.7053      2.00000
     39      -1.7419      2.00000
     40      -1.7403      2.00000
     41      -1.7090      2.00000
     42      -1.7076      2.00000
     43      -1.6704      2.00000
     44      -1.6696      2.00000
     45      -1.4942      2.00000
     46      -1.4940      2.00000
     47      -1.4691      2.00000
     48      -1.4689      2.00000
     49      -1.1840      2.00000
     50      -1.1832      2.00000
     51      -0.3660      2.00000
     52      -0.3644      2.00000
     53      -0.3468      2.00000
     54      -0.3452      2.00000
     55      -0.2295      2.00000
     56      -0.2286      2.00000
     57       0.2601      2.00000
     58       0.2609      2.00000
     59       1.1164      2.00000
     60       1.1174      2.00000
[...]
     70       7.8663      0.00000
     71       8.2383      0.00000
     72       8.2396      0.00000
     73       9.7044      0.00000
     74       9.7069      0.00000
     75      10.0176      0.00000
     76      10.0194      0.00000
     77      10.1300      0.00000
     78      10.1321      0.00000
     79      11.5941      0.00000
     80      11.5972      0.00000
     81      12.3509      0.00000
     82      12.3516      0.00000
     83      12.5769      0.00000
     84      12.5789      0.00000

 soft charge-density along one line, spin component           1
         0         1         2         3         4         5         6         7         8         9
 total charge-density along one line

------------------------ aborting loop because EDIFF is reached ----------------------------------------

         DFTD3 V3.0 Rev 1
 IVDW         = 12
 DF pbe
 parameters
 VDW_S6       =    1.0000
 VDW_S8       =    0.7875
 VDW_A1       =    0.4289
 VDW_A2       =    4.4407
 k1-k3        =   16.0000    1.3333   -4.0000
 VDW_RADIUS   =   50.2022 A
 VDW_CNRADIUS =   21.1671 A
 Edisp (eV)   -4.73048

 E6    (eV) :    -3.3982
 E8    (eV) :    -1.3322
 % E8        : 28.16

  FORCE on cell =-STRESS in cart. coord.  units (eV):
  Direction    XX          YY          ZZ          XY          YZ          ZX
  Alpha Z   281.74243   281.74243   281.74243
  Ewald     851.98764   851.51552 -5154.73838    -1.13516    -0.00060    -0.00673
  Hartree  1454.50752  1454.51957 -1273.92761    -0.08990    -0.00015    -0.00140
  E(xc)    -467.34775  -467.35447  -484.98874    -0.00860    -0.00001     0.00000
  Local   -3916.88933 -3916.53211  4547.83882     0.99689     0.00046     0.00677
  n-local  -112.49376  -112.60521  -102.57689    -0.10201    -0.00019     0.00033
  augment   -12.37359   -12.37272   -11.33930     0.00189     0.00001     0.00001
  Kinetic  1921.35248  1922.15777  2201.08897     0.81238     0.00284    -0.00332
  Fock        0.00000     0.00000     0.00000     0.00000     0.00000     0.00000
  vdW        -0.80037    -0.79115    -5.69364     0.00833     0.00000    -0.00001
  Total      -0.31473     0.27962    -2.59433     0.48383     0.00237    -0.00436
  in kB      -1.70277     1.51279   -14.03577     2.61759     0.01282    -0.02361

 VOLUME and BASIS-vectors are now :
  energy-cutoff  :      600.00
  volume of cell :      296.14
      direct lattice vectors                 reciprocal lattice vectors
     4.932874498 -0.001919286  0.000000000     0.202767147  0.117172881  0.000000000
    -2.468099399  4.271034986  0.000000000     0.000091118  0.234187941  0.000000000
     0.000000000  0.000000000 14.059311544     0.000000000  0.000000000  0.071127238

  length of vectors
     4.932874871  4.932874871 14.059311544     0.234187958  0.234187958  0.071127238

 FORCES acting on ions
    electron-ion (+dipol)            ewald-force                    non-local-force                 convergence-correction
   -.356E-01 0.663E-01 -.325E+00   0.341E-01 -.624E-01 0.327E+00   -.394E-02 0.265E-02 -.953E-02   -.430E-03 0.615E-04 -.446E-02
   -.335E+00 0.581E-01 -.851E+00   0.331E+00 -.533E-01 0.887E+00   -.281E-01 0.243E-02 -.790E-01   -.368E-03 0.569E-04 -.448E-02
   0.212E+00 0.380E+00 -.847E+00   -.268E+00 -.407E+00 0.882E+00   -.196E-01 0.744E-02 -.787E-01   -.394E-03 0.342E-04 -.448E-02
   0.201E+00 -.244E+00 -.854E+00   -.256E+00 0.277E+00 0.891E+00   -.206E-01 -.171E-02 -.792E-01   -.403E-03 0.730E-04 -.447E-02
   -.119E+00 0.657E-01 0.897E-01   0.108E+00 -.622E-01 -.921E-01   -.588E-02 0.255E-02 0.799E-03   0.318E-03 0.127E-03 0.249E-02
   -.119E+00 0.658E-01 0.899E-01   0.108E+00 -.622E-01 -.923E-01   -.589E-02 0.256E-02 0.771E-03   0.325E-03 0.107E-03 0.249E-02
   -.119E+00 0.658E-01 0.899E-01   0.108E+00 -.622E-01 -.923E-01   -.588E-02 0.256E-02 0.768E-03   0.335E-03 0.117E-03 0.249E-02
   -.119E+00 0.657E-01 0.899E-01   0.108E+00 -.622E-01 -.923E-01   -.588E-02 0.255E-02 0.773E-03   0.304E-03 0.121E-03 0.249E-02
   0.101E+00 -.607E-01 0.931E-01   -.917E-01 0.546E-01 -.915E-01   0.522E-02 -.325E-02 -.117E-02   -.294E-03 0.365E-03 -.146E-02
   0.133E+00 -.574E-01 0.104E+00   -.124E+00 0.512E-01 -.103E+00   0.521E-02 -.322E-02 -.905E-03   -.296E-03 0.361E-03 -.146E-02
   0.114E+00 -.869E-01 0.984E-01   -.105E+00 0.808E-01 -.970E-01   0.519E-02 -.323E-02 -.103E-02   -.296E-03 0.360E-03 -.146E-02
   0.119E+00 -.682E-01 0.783E-01   -.110E+00 0.621E-01 -.771E-01   0.525E-02 -.323E-02 -.436E-03   -.301E-03 0.359E-03 -.146E-02
   0.132E+00 -.771E-01 0.993E-01   -.124E+00 0.734E-01 -.103E+00   0.493E-02 -.261E-02 -.979E-03   -.951E-04 -.123E-03 0.343E-02
   0.997E-01 -.735E-01 0.879E-01   -.915E-01 0.697E-01 -.912E-01   0.495E-02 -.258E-02 -.123E-02   -.117E-03 -.116E-03 0.343E-02
   0.113E+00 -.471E-01 0.935E-01   -.105E+00 0.433E-01 -.970E-01   0.492E-02 -.261E-02 -.110E-02   -.118E-03 -.117E-03 0.344E-02
   0.119E+00 -.659E-01 0.733E-01   -.110E+00 0.622E-01 -.770E-01   0.500E-02 -.260E-02 -.489E-03   -.102E-03 -.122E-03 0.344E-02
   -.613E+00 -.624E-01 0.186E+01   0.728E+00 0.582E-01 -.190E+01   0.939E-01 -.266E-02 0.181E+00   0.474E-03 -.859E-04 -.435E-02
   0.301E+00 -.655E-01 -.387E+00   -.317E+00 0.621E-01 0.374E+00   -.144E-01 -.257E-02 0.243E-01   0.355E-03 -.744E-04 -.445E-02
   0.133E+00 -.163E+00 -.387E+00   -.126E+00 0.172E+00 0.374E+00   -.404E-02 0.350E-02 0.244E-01   0.406E-03 -.364E-04 -.445E-02
   0.133E+00 0.315E-01 -.387E+00   -.125E+00 -.486E-01 0.375E+00   -.412E-02 -.846E-02 0.243E-01   0.422E-03 -.103E-03 -.446E-02
   0.118E+00 -.654E-01 0.902E-01   -.107E+00 0.620E-01 -.926E-01   0.573E-02 -.249E-02 -.181E-03   -.324E-03 -.115E-03 0.250E-02
   0.118E+00 -.654E-01 0.897E-01   -.107E+00 0.620E-01 -.921E-01   0.573E-02 -.249E-02 -.897E-04   -.331E-03 -.987E-04 0.250E-02
   0.118E+00 -.655E-01 0.897E-01   -.107E+00 0.620E-01 -.921E-01   0.573E-02 -.249E-02 -.896E-04   -.344E-03 -.105E-03 0.250E-02
   0.118E+00 -.654E-01 0.897E-01   -.107E+00 0.620E-01 -.921E-01   0.573E-02 -.249E-02 -.894E-04   -.313E-03 -.107E-03 0.250E-02
   -.996E-01 0.567E-01 0.104E+00   0.911E-01 -.509E-01 -.102E+00   -.521E-02 0.317E-02 0.234E-03   0.322E-03 -.367E-03 -.147E-02
   -.132E+00 0.601E-01 0.930E-01   0.123E+00 -.544E-01 -.915E-01   -.496E-02 0.324E-02 -.617E-04   0.324E-03 -.364E-03 -.147E-02
   -.119E+00 0.869E-01 0.985E-01   0.110E+00 -.807E-01 -.972E-01   -.515E-02 0.299E-02 0.967E-04   0.316E-03 -.363E-03 -.147E-02
   -.114E+00 0.679E-01 0.786E-01   0.105E+00 -.620E-01 -.772E-01   -.500E-02 0.314E-02 0.890E-04   0.325E-03 -.363E-03 -.147E-02
   -.131E+00 0.732E-01 0.877E-01   0.123E+00 -.696E-01 -.911E-01   -.459E-02 0.238E-02 -.161E-03   0.709E-04 0.134E-03 0.343E-02
   -.982E-01 0.768E-01 0.993E-01   0.909E-01 -.733E-01 -.103E+00   -.484E-02 0.244E-02 0.203E-03   0.860E-04 0.133E-03 0.342E-02
   -.118E+00 0.463E-01 0.936E-01   0.110E+00 -.431E-01 -.972E-01   -.477E-02 0.263E-02 0.374E-04   0.744E-04 0.119E-03 0.342E-02
   -.112E+00 0.654E-01 0.736E-01   0.105E+00 -.619E-01 -.770E-01   -.462E-02 0.248E-02 0.426E-04   0.753E-04 0.134E-03 0.342E-02
   0.350E-04 -.623E-04 -.390E-02   0.573E-14 0.327E-13 -.711E-13   -.358E-04 0.484E-04 0.361E-02   0.654E-05 0.185E-05 0.692E-04

 POSITION                                       TOTAL-FORCE (eV/Angst)
      2.46402      0.00044      1.75741        -0.006040      0.006639     -0.011502
      4.93046     -0.00052      1.75741        -0.032194      0.007338     -0.047181
      1.22997      2.13595      1.75741        -0.076123     -0.018618     -0.047574
      3.69641      2.13499      1.75741        -0.076137      0.032046     -0.046748
      2.46402      0.00044      8.78707        -0.016919      0.006276      0.000886
      4.93046     -0.00052      8.78707        -0.016920      0.006277      0.000878
      1.22997      2.13595      8.78707        -0.016920      0.006275      0.000875
      3.69641      2.13499      8.78707        -0.016919      0.006275      0.000879
     -1.23163      2.13412      5.27224         0.014183     -0.009046     -0.001082
      1.23481      2.13316      5.27224         0.014127     -0.009098     -0.001149
     -2.46568      4.26964      5.27224         0.014199     -0.009041     -0.001110
      0.00076      4.26868      5.27224         0.014099     -0.009063     -0.000660
     -1.23163      2.13412     12.30190         0.013045     -0.006436     -0.001212
      1.23481      2.13316     12.30190         0.013102     -0.006542     -0.001127
     -2.46568      4.26964     12.30190         0.013163     -0.006513     -0.001166
      0.00076      4.26868     12.30190         0.013025     -0.006494     -0.000704
     -0.00663      1.42496      1.74798         0.210381     -0.006969      0.135389
      2.46311      1.42400      1.75741        -0.030889     -0.006091      0.007493
     -1.23737      3.56047      1.75741         0.003744      0.013927      0.007429
      1.22906      3.55952      1.75741         0.003837     -0.026207      0.007665
     -0.00332      1.42496      8.78707         0.016400     -0.006054     -0.000116
      2.46311      1.42400      8.78707         0.016401     -0.006054     -0.000041
     -1.23737      3.56047      8.78707         0.016401     -0.006053     -0.000041
      1.22906      3.55952      8.78707         0.016400     -0.006053     -0.000041
      1.23571      0.70960      5.27224        -0.013517      0.008655      0.000013
      3.70215      0.70864      5.27224        -0.013795      0.008642     -0.000058
      0.00166      2.84512      5.27224        -0.013646      0.008888     -0.000014
      2.46810      2.84416      5.27224        -0.013678      0.008735      0.000136
      1.23571      0.70960     12.30190        -0.012353      0.006185     -0.000143
      3.70215      0.70864     12.30190        -0.012068      0.006159     -0.000011
      0.00166      2.84512     12.30190        -0.012190      0.005931     -0.000062
      2.46810      2.84416     12.30190        -0.012202      0.006084      0.000097
    total drift:                                0.000006     -0.000012     -0.000222

  FREE ENERGIE OF THE ION-ELECTRON SYSTEM (eV)
  free  energy   TOTEN  =      -299.62661062 eV

  energy  without entropy=     -299.62661062  energy(sigma->0) =     -299.62661062

 BZINTS: Fermi energy:  4.279086;128.000000 electrons
         Band energy:-618.641591;  BLOECHL correction: -0.000000