 vasp.5.3.5 31Mar14 (build Nov 04 2014 22:34:45) complex

 executed on         atom-AMD-MKL date 2016.08.14  08:31:39

 INCAR:
 POTCAR:   PAW_PBE C 08Apr2002
 POTCAR:   PAW_PBE C 08Apr2002
   VRHFIN =C: s2p2

   TITEL  = PAW_PBE C 08Apr2002
   POMASS =   12.011; ZVAL   =    4.000    mass and valenz
   ENMAX  =  400.000; ENMIN  =  300.000 eV
   QCUT   =   -5.516; QGAM   =   11.032    optimization parameters

   Description
     l     E      TYP  RCUT    TYP  RCUT
     0   .000     23  1.200
     0   .000     23  1.200
     1   .000     23  1.500
     1  2.500     23  1.500
     2   .000      7  1.500

 PAW_PBE C 08Apr2002                    :

 POSCAR: CIF file
  positions in direct lattice
  velocities in cartesian coordinates
 exchange correlation table for  LEXCH =        8
   RHO(1)=    0.500       N(1)  =     2000
   RHO(2)=  100.500       N(2)  =     4000

 ion  position               nearest neighbor table
   1  0.999  0.001  0.250-   3 1.42   3 1.42   3 1.42
   2  0.001  0.999  0.750-   4 1.42   4 1.42   4 1.42
   3  0.333  0.667  0.250-   1 1.42   1 1.42   1 1.42
   4  0.667  0.333  0.750-   2 1.42   2 1.42   2 1.42

  LATTYP: Found a base centered orthorhombic cell.
 ALAT       =     2.4647750986
 B/A-ratio  =     1.7336081796
 C/A-ratio  =     2.9596719819

  Lattice vectors:

 A1 = (   2.4664372490,  -0.0009596430,   0.0000000000)
 A2 = (  -1.2340496996,   2.1355174929,   0.0000000000)
 A3 = (   0.0000000000,   0.0000000000,   7.2949258010)

Analysis of symmetry for initial positions (statically):
 Subroutine PRICEL returns:
 Original cell was already a primitive cell.

 Routine SETGRP: Setting up the symmetry group for a
 base centered orthorhombic supercell.

 Subroutine GETGRP returns: Found  8 space group operations
 (whereof  4 operations were pure point group operations)
 out of a pool of  8 trial point group operations.

The static configuration has the point symmetry C_2h.
 The point group associated with its full space group is D_2h.

Analysis of symmetry for dynamics (positions and initial velocities):
 Subroutine PRICEL returns:
 Original cell was already a primitive cell.

 Routine SETGRP: Setting up the symmetry group for a
 base centered orthorhombic supercell.

 Subroutine GETGRP returns: Found  8 space group operations
 (whereof  4 operations were pure point group operations)
 out of a pool of  8 trial point group operations.

The dynamic configuration has the point symmetry C_2h.
 The point group associated with its full space group is D_2h.

 KPOINTS: B4C B11C-CBC

Automatic generation of k-mesh.
Space group operators:
 irot       det(A)        alpha          n_x          n_y          n_z        tau_x        tau_y        tau_z
    1     1.000000     0.000000     1.000000     0.000000     0.000000     0.000000     0.000000     0.000000
    2    -1.000000     0.000000     1.000000     0.000000     0.000000     0.000000     0.000000     0.000000
    3     1.000000   180.000000    -0.500000    -0.866025     0.000000     0.000000     0.000000     0.000000
    4    -1.000000   180.000000    -0.500000    -0.866025     0.000000     0.000000     0.000000     0.000000
    5     1.000000   179.999999     0.000000     0.000000     1.000000     0.000000     0.000000     0.500000
    6    -1.000000   179.999999     0.000000     0.000000     1.000000     0.000000     0.000000     0.500000
    7     1.000000   180.000000     0.866025    -0.500000     0.000000     0.000000     0.000000     0.500000
    8    -1.000000   180.000000     0.866025    -0.500000     0.000000     0.000000     0.000000     0.500000

 Subroutine IBZKPT returns following result:

 Found    455 irreducible k-points:

 Following reciprocal coordinates:
            Coordinates               Weight
  0.000000  0.000000  0.000000      1.000000
  0.055556  0.000000  0.000000      4.000000
  0.111111  0.000000  0.000000      4.000000
  0.166667  0.000000  0.000000      4.000000
  0.222222  0.000000  0.000000      4.000000
  0.277778 -0.000000  0.000000      4.000000
  0.333333  0.000000  0.000000      4.000000
  0.388889 -0.000000  0.000000      4.000000
  0.444444  0.000000  0.000000      4.000000
  0.500000  0.000000  0.000000      2.000000
  0.055556  0.055556  0.000000      2.000000
  0.111111  0.055556  0.000000      4.000000
  0.166667  0.055556  0.000000      4.000000
  0.222222  0.055556  0.000000      4.000000
  0.277778  0.055556  0.000000      4.000000
  0.333333  0.055556  0.000000      4.000000
  0.388889  0.055556  0.000000      4.000000
  0.444444  0.055556  0.000000      4.000000
  0.500000  0.055556  0.000000      4.000000
 -0.444444  0.055556  0.000000      4.000000
 -0.388889  0.055556  0.000000      4.000000
 -0.333333  0.055556  0.000000      4.000000
 -0.277778  0.055556  0.000000      4.000000
 -0.222222  0.055556  0.000000      4.000000
 -0.166667  0.055556  0.000000      4.000000
 -0.111111  0.055556  0.000000      4.000000
 -0.055556  0.055556  0.000000      2.000000
  0.111111  0.111111  0.000000      2.000000
  0.166667  0.111111  0.000000      4.000000
  0.222222  0.111111  0.000000      4.000000
  0.277778  0.111111  0.000000      4.000000
  0.333333  0.111111  0.000000      4.000000
  0.388889  0.111111  0.000000      4.000000
  0.444444  0.111111  0.000000      4.000000
  0.500000  0.111111  0.000000      4.000000
 -0.444444  0.111111  0.000000      4.000000
 -0.388889  0.111111  0.000000      4.000000
 -0.333333  0.111111  0.000000      4.000000
 -0.277778  0.111111  0.000000      4.000000
 -0.222222  0.111111  0.000000      4.000000
 -0.166667  0.111111  0.000000      4.000000
 -0.111111  0.111111  0.000000      2.000000
  0.166667  0.166667  0.000000      2.000000
  0.222222  0.166667  0.000000      4.000000
  0.277778  0.166667  0.000000      4.000000
  0.333333  0.166667  0.000000      4.000000
  0.388889  0.166667  0.000000      4.000000
  0.444444  0.166667  0.000000      4.000000
  0.500000  0.166667  0.000000      4.000000
 -0.444444  0.166667  0.000000      4.000000
 -0.388889  0.166667  0.000000      4.000000
 -0.333333  0.166667  0.000000      4.000000
 -0.277778  0.166667  0.000000      4.000000
 -0.222222  0.166667  0.000000      4.000000
 -0.166667  0.166667  0.000000      2.000000
  0.222222  0.222222  0.000000      2.000000
  0.277778  0.222222  0.000000      4.000000
  0.333333  0.222222  0.000000      4.000000
  0.388889  0.222222  0.000000      4.000000
  0.444444  0.222222  0.000000      4.000000
[...]
  0.388889  0.333333  0.500000      4.000000
  0.444444  0.333333  0.500000      4.000000
  0.500000  0.333333  0.500000      4.000000
 -0.444444  0.333333  0.500000      4.000000
 -0.388889  0.333333  0.500000      4.000000
 -0.333333  0.333333  0.500000      2.000000
  0.388889  0.388889  0.500000      2.000000
  0.444444  0.388889  0.500000      4.000000
  0.500000  0.388889  0.500000      4.000000
 -0.444444  0.388889  0.500000      4.000000
 -0.388889  0.388889  0.500000      2.000000
  0.444444  0.444444  0.500000      2.000000
  0.500000  0.444444  0.500000      4.000000
 -0.444444  0.444444  0.500000      2.000000
  0.500000  0.500000  0.500000      1.000000

 Following cartesian coordinates:
            Coordinates               Weight
  0.000000  0.000000  0.000000      1.000000
  0.022530  0.013019  0.000000      4.000000
  0.045059  0.026038  0.000000      4.000000
  0.067589  0.039058  0.000000      4.000000
  0.090119  0.052077  0.000000      4.000000
  0.112648  0.065096  0.000000      4.000000
  0.135178  0.078115  0.000000      4.000000
  0.157708  0.091134  0.000000      4.000000
  0.180237  0.104154  0.000000      4.000000
  0.202767  0.117173  0.000000      2.000000
  0.022540  0.039040  0.000000      2.000000
  0.045069  0.052059  0.000000      4.000000
  0.067599  0.065079  0.000000      4.000000
  0.090129  0.078098  0.000000      4.000000
  0.112659  0.091117  0.000000      4.000000
  0.135188  0.104136  0.000000      4.000000
  0.157718  0.117155  0.000000      4.000000
  0.180248  0.130175  0.000000      4.000000
  0.202777  0.143194  0.000000      4.000000
 -0.180227 -0.078133  0.000000      4.000000
 -0.157698 -0.065114  0.000000      4.000000
 -0.135168 -0.052094  0.000000      4.000000
 -0.112638 -0.039075  0.000000      4.000000
 -0.090109 -0.026056  0.000000      4.000000
 -0.067579 -0.013037  0.000000      4.000000
 -0.045049 -0.000018  0.000000      4.000000
 -0.022520  0.013002  0.000000      2.000000
  0.045080  0.078080  0.000000      2.000000
  0.067609  0.091099  0.000000      4.000000
  0.090139  0.104119  0.000000      4.000000
  0.112669  0.117138  0.000000      4.000000
  0.135198  0.130157  0.000000      4.000000
  0.157728  0.143176  0.000000      4.000000
  0.180258  0.156195  0.000000      4.000000
  0.202787  0.169215  0.000000      4.000000
 -0.180217 -0.052112  0.000000      4.000000
 -0.157688 -0.039093  0.000000      4.000000
 -0.135158 -0.026073  0.000000      4.000000
 -0.112628 -0.013054  0.000000      4.000000
 -0.090098 -0.000035  0.000000      4.000000
 -0.067569  0.012984  0.000000      4.000000
 -0.045039  0.026003  0.000000      2.000000
  0.067619  0.117120  0.000000      2.000000
  0.090149  0.130139  0.000000      4.000000
  0.112679  0.143159  0.000000      4.000000
  0.135208  0.156178  0.000000      4.000000
  0.157738  0.169197  0.000000      4.000000
  0.180268  0.182216  0.000000      4.000000
  0.202798  0.195236  0.000000      4.000000
 -0.180207 -0.026091  0.000000      4.000000
 -0.157677 -0.013072  0.000000      4.000000
 -0.135148 -0.000053  0.000000      4.000000
 -0.112618  0.012967  0.000000      4.000000
 -0.090088  0.025986  0.000000      4.000000
 -0.067559  0.039005  0.000000      2.000000
  0.090159  0.156160  0.000000      2.000000
  0.112689  0.169180  0.000000      4.000000
  0.135219  0.182199  0.000000      4.000000
  0.157748  0.195218  0.000000      4.000000
  0.180278  0.208237  0.000000      4.000000
[...]
  0.157769  0.247260  0.068541      4.000000
  0.180298  0.260279  0.068541      4.000000
  0.202828  0.273298  0.068541      4.000000
 -0.180177  0.051972  0.068541      4.000000
 -0.157647  0.064991  0.068541      4.000000
 -0.135117  0.078010  0.068541      2.000000
  0.157779  0.273281  0.068541      2.000000
  0.180308  0.286300  0.068541      4.000000
  0.202838  0.299319  0.068541      4.000000
 -0.180167  0.077993  0.068541      4.000000
 -0.157637  0.091012  0.068541      2.000000
  0.180318  0.312321  0.068541      2.000000
  0.202848  0.325340  0.068541      4.000000
 -0.180156  0.104013  0.068541      2.000000
  0.202858  0.351361  0.068541      1.000000

 TETIRR: Found   3888 inequivalent tetrahedra from    15552

 I would recommend the setting:
   dimension x,y,z NGX =    20 NGY =   20 NGZ =   58
 SYSTEM =  graphite
 POSCAR =  CIF file

 Startparameter for this run:
   NWRITE =      2    write-flag & timer
   PREC   = accura    normal or accurate (medium, high low for compatibility)
   ISTART =      0    job   : 0-new  1-cont  2-samecut
   ICHARG =      2    charge: 1-file 2-atom 10-const
   ISPIN  =      1    spin polarized calculation?
   LNONCOLLINEAR =      F non collinear calculations
   LSORBIT =      F    spin-orbit coupling
[...]
 k-point 32 :   0.3333 0.1111 0.0000  plane waves:    1281
 k-point 33 :   0.3889 0.1111 0.0000  plane waves:    1291
 k-point 34 :   0.4444 0.1111 0.0000  plane waves:    1291
 k-point 35 :   0.5000 0.1111 0.0000  plane waves:    1291
 k-point 36 :  -0.4444 0.1111 0.0000  plane waves:    1281
 k-point 37 :  -0.3889 0.1111 0.0000  plane waves:    1276
 k-point 38 :  -0.3333 0.1111 0.0000  plane waves:    1275
 k-point 39 :  -0.2778 0.1111 0.0000  plane waves:    1274
 k-point 40 :  -0.2222 0.1111 0.0000  plane waves:    1277
 k-point 41 :  -0.1667 0.1111 0.0000  plane waves:    1278
 k-point 42 :  -0.1111 0.1111 0.0000  plane waves:    1267
 k-point 43 :   0.1667 0.1667 0.0000  plane waves:    1283
 k-point 44 :   0.2222 0.1667 0.0000  plane waves:    1280
 k-point 45 :   0.2778 0.1667 0.0000  plane waves:    1291
 k-point 46 :   0.3333 0.1667 0.0000  plane waves:    1287
 k-point 47 :   0.3889 0.1667 0.0000  plane waves:    1285
 k-point 48 :   0.4444 0.1667 0.0000  plane waves:    1285
 k-point 49 :   0.5000 0.1667 0.0000  plane waves:    1287
 k-point 50 :  -0.4444 0.1667 0.0000  plane waves:    1291
 k-point 51 :  -0.3889 0.1667 0.0000  plane waves:    1280
 k-point 52 :  -0.3333 0.1667 0.0000  plane waves:    1283
 k-point 53 :  -0.2778 0.1667 0.0000  plane waves:    1274
 k-point 54 :  -0.2222 0.1667 0.0000  plane waves:    1273
 k-point 55 :  -0.1667 0.1667 0.0000  plane waves:    1283
 k-point 56 :   0.2222 0.2222 0.0000  plane waves:    1301
 k-point 57 :   0.2778 0.2222 0.0000  plane waves:    1294
 k-point 58 :   0.3333 0.2222 0.0000  plane waves:    1294
 k-point 59 :   0.3889 0.2222 0.0000  plane waves:    1293
 k-point 60 :   0.4444 0.2222 0.0000  plane waves:    1294
[...]
 k-point 85 :   0.5000 0.3889 0.0000  plane waves:    1291
 k-point 86 :  -0.4444 0.3889 0.0000  plane waves:    1288
 k-point 87 :  -0.3889 0.3889 0.0000  plane waves:    1294
 k-point 88 :   0.4444 0.4444 0.0000  plane waves:    1289
 k-point 89 :   0.5000 0.4444 0.0000  plane waves:    1288
 k-point 90 :  -0.4444 0.4444 0.0000  plane waves:    1286
 k-point 91 :   0.5000 0.5000 0.0000  plane waves:    1284
 k-point 92 :   0.0000 0.0000 0.1250  plane waves:    1259
 k-point 93 :   0.0556 0.0000 0.1250  plane waves:    1265
 k-point 94 :   0.1111 0.0000 0.1250  plane waves:    1270
 k-point 95 :   0.1667 0.0000 0.1250  plane waves:    1272
 k-point 96 :   0.2222 0.0000 0.1250  plane waves:    1273
 k-point 97 :   0.2778-0.0000 0.1250  plane waves:    1278
 k-point 98 :   0.3333 0.0000 0.1250  plane waves:    1282
 k-point 99 :   0.3889-0.0000 0.1250  plane waves:    1290
 k-point ** :   0.4444 0.0000 0.1250  plane waves:    1288
 k-point ** :   0.5000 0.0000 0.1250  plane waves:    1280
 k-point ** :   0.0556 0.0556 0.1250  plane waves:    1267
 k-point ** :   0.1111 0.0556 0.1250  plane waves:    1270
 k-point ** :   0.1667 0.0556 0.1250  plane waves:    1275
 k-point ** :   0.2222 0.0556 0.1250  plane waves:    1278
 k-point ** :   0.2778 0.0556 0.1250  plane waves:    1279
 k-point ** :   0.3333 0.0556 0.1250  plane waves:    1282
 k-point ** :   0.3889 0.0556 0.1250  plane waves:    1282
 k-point ** :   0.4444 0.0556 0.1250  plane waves:    1288
 k-point ** :   0.5000 0.0556 0.1250  plane waves:    1288
 k-point ** :  -0.4444 0.0556 0.1250  plane waves:    1283
 k-point ** :  -0.3889 0.0556 0.1250  plane waves:    1282
 k-point ** :  -0.3333 0.0556 0.1250  plane waves:    1279
 k-point ** :  -0.2778 0.0556 0.1250  plane waves:    1278
 k-point ** :  -0.2222 0.0556 0.1250  plane waves:    1275
 k-point ** :  -0.1667 0.0556 0.1250  plane waves:    1271
 k-point ** :  -0.1111 0.0556 0.1250  plane waves:    1269
 k-point ** :  -0.0556 0.0556 0.1250  plane waves:    1265
 k-point ** :   0.1111 0.1111 0.1250  plane waves:    1276
 k-point ** :   0.1667 0.1111 0.1250  plane waves:    1276
 k-point ** :   0.2222 0.1111 0.1250  plane waves:    1278
 k-point ** :   0.2778 0.1111 0.1250  plane waves:    1276
 k-point ** :   0.3333 0.1111 0.1250  plane waves:    1280
 k-point ** :   0.3889 0.1111 0.1250  plane waves:    1288
 k-point ** :   0.4444 0.1111 0.1250  plane waves:    1286
 k-point ** :   0.5000 0.1111 0.1250  plane waves:    1288
 k-point ** :  -0.4444 0.1111 0.1250  plane waves:    1281
 k-point ** :  -0.3889 0.1111 0.1250  plane waves:    1277
 k-point ** :  -0.3333 0.1111 0.1250  plane waves:    1279
 k-point ** :  -0.2778 0.1111 0.1250  plane waves:    1276
 k-point ** :  -0.2222 0.1111 0.1250  plane waves:    1276
 k-point ** :  -0.1667 0.1111 0.1250  plane waves:    1271
 k-point ** :  -0.1111 0.1111 0.1250  plane waves:    1272
 k-point ** :   0.1667 0.1667 0.1250  plane waves:    1278
 k-point ** :   0.2222 0.1667 0.1250  plane waves:    1278
 k-point ** :   0.2778 0.1667 0.1250  plane waves:    1287
 k-point ** :   0.3333 0.1667 0.1250  plane waves:    1289
 k-point ** :   0.3889 0.1667 0.1250  plane waves:    1290
 k-point ** :   0.4444 0.1667 0.1250  plane waves:    1291
 k-point ** :   0.5000 0.1667 0.1250  plane waves:    1290
 k-point ** :  -0.4444 0.1667 0.1250  plane waves:    1287
 k-point ** :  -0.3889 0.1667 0.1250  plane waves:    1279
 k-point ** :  -0.3333 0.1667 0.1250  plane waves:    1278
 k-point ** :  -0.2778 0.1667 0.1250  plane waves:    1276
 k-point ** :  -0.2222 0.1667 0.1250  plane waves:    1275
 k-point ** :  -0.1667 0.1667 0.1250  plane waves:    1273
 k-point ** :   0.2222 0.2222 0.1250  plane waves:    1294
 k-point ** :   0.2778 0.2222 0.1250  plane waves:    1287
 k-point ** :   0.3333 0.2222 0.1250  plane waves:    1293
 k-point ** :   0.3889 0.2222 0.1250  plane waves:    1294
 k-point ** :   0.4444 0.2222 0.1250  plane waves:    1294
 k-point ** :   0.5000 0.2222 0.1250  plane waves:    1287
 k-point ** :  -0.4444 0.2222 0.1250  plane waves:    1292
 k-point ** :  -0.3889 0.2222 0.1250  plane waves:    1279
 k-point ** :  -0.3333 0.2222 0.1250  plane waves:    1279
 k-point ** :  -0.2778 0.2222 0.1250  plane waves:    1278
 k-point ** :  -0.2222 0.2222 0.1250  plane waves:    1272
 k-point ** :   0.2778 0.2778 0.1250  plane waves:    1294
 k-point ** :   0.3333 0.2778 0.1250  plane waves:    1299
[...]
 k-point ** :   0.3889 0.3333 0.5000  plane waves:    1306
 k-point ** :   0.4444 0.3333 0.5000  plane waves:    1304
 k-point ** :   0.5000 0.3333 0.5000  plane waves:    1294
 k-point ** :  -0.4444 0.3333 0.5000  plane waves:    1284
 k-point ** :  -0.3889 0.3333 0.5000  plane waves:    1280
 k-point ** :  -0.3333 0.3333 0.5000  plane waves:    1278
 k-point ** :   0.3889 0.3889 0.5000  plane waves:    1302
 k-point ** :   0.4444 0.3889 0.5000  plane waves:    1300
 k-point ** :   0.5000 0.3889 0.5000  plane waves:    1290
 k-point ** :  -0.4444 0.3889 0.5000  plane waves:    1278
 k-point ** :  -0.3889 0.3889 0.5000  plane waves:    1286
 k-point ** :   0.4444 0.4444 0.5000  plane waves:    1290
 k-point ** :   0.5000 0.4444 0.5000  plane waves:    1280
 k-point ** :  -0.4444 0.4444 0.5000  plane waves:    1278
 k-point ** :   0.5000 0.5000 0.5000  plane waves:    1272

 maximum and minimum number of plane-waves per node :       448      408

 maximum number of plane-waves:      1320
 maximum index in each direction:
   IXMAX=    5   IYMAX=    4   IZMAX=   14
   IXMIN=   -5   IYMIN=   -5   IZMIN=  -15

 WARNING: aliasing errors must be expected set NGX to  22 to avoid them
 NGY is ok and might be reduce to  20
 NGZ is ok and might be reduce to  60
 aliasing errors are usually negligible using standard VASP settings
 and one can safely disregard these warnings

 parallel 3D FFT for wavefunctions:
    minimum data exchange during FFTs selected (reduces bandwidth)
 parallel 3D FFT for charge:
    minimum data exchange during FFTs selected (reduces bandwidth)

 Broyden mixing: mesh for mixing (old mesh)
   NGX =  9   NGY =  9   NGZ = 29
  (NGX  = 40   NGY  = 40   NGZ  =120)
  gives a total of   2349 points

 initial charge density was supplied:
 charge density of overlapping atoms calculated
 number of electron      16.0000000 magnetization
 keeping initial charge density in first step

 Maximum index for augmentation-charges         1359 (set IRDMAX)

 First call to EWALD:  gamma=   0.525
 Maximum number of real-space cells 4x 4x 2
 Maximum number of reciprocal cells 2x 2x 5

 FEWALD executed in parallel

----------------------------------------- Iteration    1(   1)  ---------------------------------------

 BZINTS: Fermi energy: 13.474747; 16.000000 electrons
         Band energy: -20.061152;  BLOECHL correction: -0.429774

 eigenvalue-minimisations  : 10928
 total energy-change (2. order) : 0.6135755E+02  (-0.8898193E+03)
 number of electron      16.0000000 magnetization
 augmentation part       16.0000000 magnetization

 Free energy of the ion-electron system (eV)
  alpha Z        PSCENC =        33.93715649
  Ewald energy   TEWEN  =      -407.08731670
  -Hartree energ DENC   =      -184.70029059
  -exchange      EXHF   =         0.00000000
  -V(xc)+E(xc)   XCENC  =        55.26992432
  PAW double counting   =       151.32577238     -155.92769107
  entropy T*S    EENTRO =         0.00000000
  eigenvalues    EBANDS =       -20.06115170
  atomic energy  EATOM  =       588.60115103
  free energy    TOTEN  =        61.35755416 eV

  energy without entropy =       61.35755416  energy(sigma->0) =       61.35755416

[...]

 BZINTS: Fermi energy:  2.736374; 16.000000 electrons
         Band energy:-115.937594;  BLOECHL correction:  0.000000

 eigenvalue-minimisations  : 15632
 total energy-change (2. order) :-0.9587644E+02  (-0.8773734E+02)
 number of electron      16.0000000 magnetization
 augmentation part       16.0000000 magnetization

[...]

 Broyden mixing:
  rms(total) = 0.78122E+00    rms(broyden)= 0.78113E+00
  rms(prec ) = 0.12024E+01
  weight for this iteration     100.00

[...]

 BZINTS: Fermi energy:  3.138184; 16.000000 electrons
         Band energy:-102.046839;  BLOECHL correction: -0.000004

[...]

 eigenvalues of (default mixing * dielectric matrix)
  average eigenvalue GAMMA=   2.0341
  2.0341

[...]

 eigenvalue-minimisations  : 12992
 total energy-change (2. order) : 0.6002652E+00  (-0.1951834E+00)
 number of electron      16.0000001 magnetization
 augmentation part        0.3853425 magnetization

[...]

 Broyden mixing:
  rms(total) = 0.20725E-03    rms(broyden)= 0.20708E-03
  rms(prec ) = 0.34501E-03
  weight for this iteration     100.00

 eigenvalues of (default mixing * dielectric matrix)
  average eigenvalue GAMMA=   1.8697
  2.9545  2.4185  1.9541  1.9541  0.9684  0.9684

[...]

----------------------------------------- Iteration    1(  12)  ---------------------------------------

 BZINTS: Fermi energy:  3.977102; 16.000000 electrons
         Band energy: -82.296984;  BLOECHL correction: -0.000008

 eigenvalue-minimisations  : 10008
 total energy-change (2. order) :-0.6093757E-06  (-0.7640794E-07)
 number of electron      16.0000001 magnetization
 augmentation part        0.3834210 magnetization

 Free energy of the ion-electron system (eV)
  alpha Z        PSCENC =        33.93715649
  Ewald energy   TEWEN  =      -407.08731670
  -Hartree energ DENC   =      -222.44664581
  -exchange      EXHF   =         0.00000000
  -V(xc)+E(xc)   XCENC  =        57.58159517
  PAW double counting   =       277.72148018     -282.88644231
  entropy T*S    EENTRO =         0.00000000
  eigenvalues    EBANDS =       -82.29698429
  atomic energy  EATOM  =       588.60115103
  free energy    TOTEN  =       -36.87600624 eV

  energy without entropy =      -36.87600624  energy(sigma->0) =      -36.87600624

 average (electrostatic) potential at core
  the test charge radii are     0.6991
  (the norm of the test charge is              1.0000)
       1 -51.4385       2 -51.4385       3 -51.4283       4 -51.4283

 E-fermi :   3.9771     XC(G=0):  -9.7305     alpha+bet :-10.4533

 k-point     1 :       0.0000    0.0000    0.0000
  band No.  band energies     occupation
      1     -15.5969      2.00000
      2     -15.4446      2.00000
      3      -4.2222      2.00000
      4      -2.9649      2.00000
      5       0.9555      2.00000
      6       0.9629      2.00000
      7       0.9720      2.00000
      8       0.9791      2.00000
      9       7.6974      0.00000
     10      12.3031      0.00000
     11      12.3136      0.00000
     12      12.3304      0.00000

[...]

 k-point   455 :       0.5000    0.5000    0.5000
  band No.  band energies     occupation
      1     -10.2862      2.00000
      2     -10.2862      2.00000
      3      -9.2366      2.00000
      4      -9.2366      2.00000
      5      -2.3983      2.00000
      6      -2.3983      2.00000
      7       1.6150      2.00000
      8       1.6150      2.00000
      9       5.6381      0.00000
     10       5.6381      0.00000
     11      11.3918      0.00000
     12      11.3918      0.00000

 soft charge-density along one line, spin component           1
         0         1         2         3         4         5         6         7         8         9
 total charge-density along one line

------------------------ aborting loop because EDIFF is reached ----------------------------------------

         DFTD3 V3.0 Rev 1
 IVDW         = 12
 DF pbe
 parameters
 VDW_S6       =    1.0000
 VDW_S8       =    0.7875
 VDW_A1       =    0.4289
 VDW_A2       =    4.4407
 k1-k3        =   16.0000    1.3333   -4.0000
 VDW_RADIUS   =   50.2022 A
 VDW_CNRADIUS =   21.1671 A
 Edisp (eV)   -0.56565

 E6    (eV) :    -0.4070
 E8    (eV) :    -0.1586
 % E8        : 28.04

  FORCE on cell =-STRESS in cart. coord.  units (eV):
  Direction    XX          YY          ZZ          XY          YZ          ZX
  Alpha Z    33.93716    33.93716    33.93716
  Ewald     130.78454   130.72602  -668.59838    -0.05068    -0.00000     0.00000
  Hartree   199.86026   199.86311  -177.27209     0.00247    -0.00000    -0.00000
  E(xc)     -58.39741   -58.39821   -60.64389    -0.00069    -0.00000     0.00000
  Local    -530.64107  -530.60035   612.02052     0.03527    -0.00000    -0.00000
  n-local   -14.45024   -13.69764   -12.81483    -0.23377     0.00522    -0.00519
  augment    -1.54657    -1.54645    -1.41712     0.00011    -0.00000     0.00000
  Kinetic   243.87573   236.52717   275.01039     2.22662    -0.07771     0.07433
  Fock        0.00000     0.00000     0.00000     0.00000     0.00000     0.00000
  vdW        -0.10167    -0.10058    -0.67313     0.00095    -0.00000    -0.00000
  Total      -0.01571     0.04664    -0.45137     0.05399     0.00000    -0.00000
  in kB      -0.65507     1.94522   -18.82538     2.25192     0.00000    -0.00000

 VOLUME and BASIS-vectors are now :
  energy-cutoff  :      600.00
  volume of cell :       38.41
      direct lattice vectors                 reciprocal lattice vectors
     2.466437249 -0.000959643  0.000000000     0.405534294  0.234345762  0.000000000
    -1.234049700  2.135517493  0.000000000     0.000182236  0.468375882  0.000000000
     0.000000000  0.000000000  7.294925801     0.000000000  0.000000000  0.137081586

  length of vectors
     2.466437436  2.466437436  7.294925801     0.468375917  0.468375917  0.137081586

 FORCES acting on ions
    electron-ion (+dipol)            ewald-force                    non-local-force                 convergence-correction
   -.118E+00 0.684E-01 0.136E-11   0.108E+00 -.623E-01 -.191E-13   -.584E-02 0.337E-02 0.108E-18   -.341E-05 0.197E-05 -.755E-13
   0.118E+00 -.684E-01 0.340E-12   -.108E+00 0.623E-01 0.191E-13   0.584E-02 -.337E-02 -.108E-18   0.341E-05 -.197E-05 0.698E-13
   0.117E+00 -.674E-01 0.121E-11   -.108E+00 0.622E-01 -.191E-13   0.514E-02 -.297E-02 0.108E-18   0.508E-05 -.293E-05 -.793E-13
   -.117E+00 0.674E-01 -.738E-12   0.108E+00 -.621E-01 0.191E-13   -.514E-02 0.297E-02 -.108E-18   -.508E-05 0.294E-05 0.724E-13
   -.677E-05 -.117E-04 0.217E-11   -.157E-14 -.172E-14 0.000E+00   0.000E+00 0.555E-16 0.000E+00   -.200E-09 -.346E-09 -.125E-13

 POSITION                                       TOTAL-FORCE (eV/Angst)
      2.46402      0.00044      1.82373        -0.016474      0.009511      0.000000
     -1.23163      2.13412      5.47119         0.016474     -0.009511      0.000000
     -0.00332      1.42496      1.82373         0.014343     -0.008281      0.000000
      1.23571      0.70960      5.47119        -0.014343      0.008281     -0.000000
    total drift:                               -0.000007     -0.000012      0.000000

  FREE ENERGIE OF THE ION-ELECTRON SYSTEM (eV)
  free  energy   TOTEN  =       -37.44165676 eV

  energy  without entropy=      -37.44165676  energy(sigma->0) =      -37.44165676

 reached required accuracy - stopping structural energy minimisation
 BZINTS: Fermi energy:  3.977102; 16.000000 electrons
         Band energy: -82.296984;  BLOECHL correction: -0.000008