 vasp.5.3.5 31Mar14 (build Nov 02 2014 15:17:37) complex

 executed on        ion-Intel-MKL date 2017.02.18  12:35:19

 INCAR:
 POTCAR:   PAW_PBE C 08Apr2002
 POTCAR:   PAW_PBE C 08Apr2002
   VRHFIN =C: s2p2

   TITEL  = PAW_PBE C 08Apr2002
   POMASS =   12.011; ZVAL   =    4.000    mass and valenz
   ENMAX  =  400.000; ENMIN  =  300.000 eV
   QCUT   =   -5.516; QGAM   =   11.032    optimization parameters

   Description
     l     E      TYP  RCUT    TYP  RCUT
     0   .000     23  1.200
     0   .000     23  1.200
     1   .000     23  1.500
     1  2.500     23  1.500
     2   .000      7  1.500

 PAW_PBE C 08Apr2002                    :

 POSCAR: cubic diamond    55%
  positions in direct lattice
 exchange correlation table for  LEXCH =        8
   RHO(1)=    0.500       N(1)  =     2000
   RHO(2)=  100.500       N(2)  =     4000

 ion  position               nearest neighbor table
   1  0.000  0.000  0.000-   2 1.31   2 1.31   2 1.31   2 1.31
   2  0.250  0.250  0.250-   1 1.31   1 1.31   1 1.31   1 1.31

  LATTYP: Found a face centered cubic cell.
 ALAT       =     3.0314887129

  Lattice vectors:

 A1 = (   2.1435862261,   0.0000000000,   0.0000000000)
 A2 = (   1.0717931130,   1.8564001270,   0.0000000000)
 A3 = (   1.0717931130,   0.6188000423,   1.7502308244)

Analysis of symmetry for initial positions (statically):
 Subroutine PRICEL returns:
 Original cell was already a primitive cell.

 Routine SETGRP: Setting up the symmetry group for a
 face centered cubic supercell.

 Subroutine GETGRP returns: Found 48 space group operations
 (whereof 24 operations were pure point group operations)
 out of a pool of 48 trial point group operations.

The static configuration has the point symmetry T_d .
 The point group associated with its full space group is O_h .

Analysis of symmetry for dynamics (positions and initial velocities):
 Subroutine PRICEL returns:
 Original cell was already a primitive cell.

 Routine SETGRP: Setting up the symmetry group for a
 face centered cubic supercell.

 Subroutine GETGRP returns: Found 48 space group operations
 (whereof 24 operations were pure point group operations)
 out of a pool of 48 trial point group operations.

The dynamic configuration has the point symmetry T_d .
 The point group associated with its full space group is O_h .

 KPOINTS: B4C B11C-CBC

Automatic generation of k-mesh.
Space group operators:
 irot       det(A)        alpha          n_x          n_y          n_z        tau_x        tau_y        tau_z
    1     1.000000     0.000000     1.000000     0.000000     0.000000     0.000000     0.000000     0.000000
    2     1.000000   120.000000    -0.816497    -0.471405    -0.333333     0.000000     0.000000     0.000000
    3     1.000000   120.000000     0.816497     0.471405     0.333333     0.000000     0.000000     0.000000
    4    -1.000000    90.000000    -0.707107    -0.408248     0.577350     0.000000     0.000000     0.000000
    5    -1.000000   180.000000     1.000000     0.000000     0.000000     0.000000     0.000000     0.000000
    6    -1.000000    90.000000     0.707107    -0.408248     0.577350     0.000000     0.000000     0.000000
    7     1.000000   179.999999     0.707107     0.408248    -0.577350     0.000000     0.000000     0.000000
    8     1.000000   120.000000     0.816497    -0.471405    -0.333333     0.000000     0.000000     0.000000
    9     1.000000   120.000000    -0.000000    -0.942809     0.333333     0.000000     0.000000     0.000000
   10    -1.000000    90.000000     0.707107     0.408248    -0.577350     0.000000     0.000000     0.000000
   11    -1.000000    90.000000     0.000000    -0.816497    -0.577350     0.000000     0.000000     0.000000
   12    -1.000000   180.000000     0.500000     0.866025     0.000000     0.000000     0.000000     0.000000
   13     1.000000   120.000000    -0.000000     0.942809    -0.333333     0.000000     0.000000     0.000000
   14     1.000000   120.000000    -0.000000     0.000000    -1.000000     0.000000     0.000000     0.000000
   15     1.000000   180.000000     0.000000    -0.816497    -0.577350     0.000000     0.000000     0.000000
   16    -1.000000    90.000000    -0.707107     0.408248    -0.577350     0.000000     0.000000     0.000000
   17    -1.000000   180.000000     0.500000     0.288675     0.816497     0.000000     0.000000     0.000000
   18    -1.000000    90.000000     0.000000     0.816497     0.577350     0.000000     0.000000     0.000000
   19     1.000000   120.000000    -0.816497     0.471405     0.333333     0.000000     0.000000     0.000000
   20     1.000000   180.000000     0.707107    -0.408248     0.577350     0.000000     0.000000     0.000000
   21     1.000000   120.000000    -0.000000     0.000000     1.000000     0.000000     0.000000     0.000000
   22    -1.000000   180.000000     0.000000    -0.577350     0.816497     0.000000     0.000000     0.000000
   23    -1.000000   180.000000    -0.500000     0.866025     0.000000     0.000000     0.000000     0.000000
   24    -1.000000   180.000000    -0.500000     0.288675     0.816497     0.000000     0.000000     0.000000
   25    -1.000000     0.000000     1.000000     0.000000     0.000000     0.250000     0.250000     0.250000
   26    -1.000000   120.000000    -0.816497    -0.471405    -0.333333     0.250000     0.250000     0.250000
   27    -1.000000   120.000000     0.816497     0.471405     0.333333     0.250000     0.250000     0.250000
   28     1.000000    90.000000    -0.707107    -0.408248     0.577350     0.250000     0.250000     0.250000
   29     1.000000   180.000000     1.000000     0.000000     0.000000     0.250000     0.250000     0.250000
   30     1.000000    90.000000     0.707107    -0.408248     0.577350     0.250000     0.250000     0.250000
   31    -1.000000   179.999999     0.707107     0.408248    -0.577350     0.250000     0.250000     0.250000
   32    -1.000000   120.000000     0.816497    -0.471405    -0.333333     0.250000     0.250000     0.250000
   33    -1.000000   120.000000    -0.000000    -0.942809     0.333333     0.250000     0.250000     0.250000
   34     1.000000    90.000000     0.707107     0.408248    -0.577350     0.250000     0.250000     0.250000
   35     1.000000    90.000000     0.000000    -0.816497    -0.577350     0.250000     0.250000     0.250000
   36     1.000000   180.000000     0.500000     0.866025     0.000000     0.250000     0.250000     0.250000
   37    -1.000000   120.000000    -0.000000     0.942809    -0.333333     0.250000     0.250000     0.250000
   38    -1.000000   120.000000    -0.000000     0.000000    -1.000000     0.250000     0.250000     0.250000
   39    -1.000000   180.000000     0.000000    -0.816497    -0.577350     0.250000     0.250000     0.250000
   40     1.000000    90.000000    -0.707107     0.408248    -0.577350     0.250000     0.250000     0.250000
   41     1.000000   180.000000     0.500000     0.288675     0.816497     0.250000     0.250000     0.250000
   42     1.000000    90.000000     0.000000     0.816497     0.577350     0.250000     0.250000     0.250000
   43    -1.000000   120.000000    -0.816497     0.471405     0.333333     0.250000     0.250000     0.250000
   44    -1.000000   180.000000     0.707107    -0.408248     0.577350     0.250000     0.250000     0.250000
   45    -1.000000   120.000000    -0.000000     0.000000     1.000000     0.250000     0.250000     0.250000
   46     1.000000   180.000000     0.000000    -0.577350     0.816497     0.250000     0.250000     0.250000
   47     1.000000   180.000000    -0.500000     0.866025     0.000000     0.250000     0.250000     0.250000
   48     1.000000   180.000000    -0.500000     0.288675     0.816497     0.250000     0.250000     0.250000

 Subroutine IBZKPT returns following result:

 Found    194 irreducible k-points:

 Following reciprocal coordinates:
            Coordinates               Weight
  0.000000  0.000000  0.000000      1.000000
  0.083333  0.000000  0.000000      4.000000
  0.166667  0.000000  0.000000      4.000000
  0.250000  0.000000 -0.000000      8.000000
  0.333333  0.000000  0.000000      4.000000
  0.416667  0.000000 -0.000000      4.000000
  0.500000  0.000000 -0.000000      4.000000
  0.083333  0.083333  0.000000      2.000000
  0.166667  0.083333  0.000000      4.000000
  0.250000  0.083333 -0.000000     12.000000
  0.333333  0.083333  0.000000      8.000000
  0.416667  0.083333 -0.000000      4.000000
  0.500000  0.083333 -0.000000     12.000000
 -0.416667  0.083333  0.000000      8.000000
 -0.333333  0.083333 -0.000000      4.000000
 -0.250000  0.083333 -0.000000     12.000000
 -0.166667  0.083333 -0.000000      8.000000
 -0.083333  0.083333 -0.000000      2.000000
  0.166667  0.166667  0.000000      2.000000
  0.250000  0.166667  0.000000     12.000000
  0.333333  0.166667  0.000000      4.000000
  0.416667  0.166667 -0.000000      8.000000
  0.500000  0.166667 -0.000000     12.000000
 -0.416667  0.166667  0.000000      4.000000
 -0.333333  0.166667 -0.000000      8.000000
 -0.250000  0.166667  0.000000     12.000000
 -0.166667  0.166667 -0.000000      2.000000
  0.250000  0.250000 -0.000000      6.000000
  0.333333  0.250000  0.000000     12.000000
  0.416667  0.250000 -0.000000     12.000000
  0.500000  0.250000  0.000000     24.000000
 -0.416667  0.250000  0.000000     12.000000
 -0.333333  0.250000 -0.000000     12.000000
 -0.250000  0.250000  0.000000     12.000000
  0.333333  0.333333  0.000000      2.000000
  0.416667  0.333333  0.000000      4.000000
  0.500000  0.333333  0.000000     12.000000
 -0.416667  0.333333  0.000000      8.000000
 -0.333333  0.333333  0.000000      2.000000
  0.416667  0.416667 -0.000000      2.000000
  0.500000  0.416667  0.000000     12.000000
 -0.416667  0.416667  0.000000      2.000000
  0.500000  0.500000 -0.000000      3.000000
  0.000000  0.000000  0.125000      2.000000
  0.083333  0.000000  0.125000      4.000000
  0.166667  0.000000  0.125000      4.000000
  0.250000  0.000000  0.125000      6.000000
  0.333333  0.000000  0.125000      4.000000
  0.416667  0.000000  0.125000      4.000000
  0.500000  0.000000  0.125000      6.000000
 -0.416667 -0.000000  0.125000      4.000000
 -0.333333 -0.000000  0.125000      4.000000
 -0.250000 -0.000000  0.125000      6.000000
 -0.166667 -0.000000  0.125000      4.000000
 -0.083333 -0.000000  0.125000      4.000000
  0.083333  0.083333  0.125000      2.000000
  0.166667  0.083333  0.125000      4.000000
  0.250000  0.083333  0.125000      8.000000
  0.333333  0.083333  0.125000      4.000000
  0.416667  0.083333  0.125000      4.000000
[...]
 -0.333333 -0.333333  0.375000      2.000000
 -0.166667 -0.333333  0.375000      4.000000
 -0.083333 -0.333333  0.375000      4.000000
 -0.166667 -0.250000  0.375000      8.000000
 -0.166667 -0.166667  0.375000      2.000000
 -0.083333 -0.166667  0.375000      4.000000
 -0.083333 -0.083333  0.375000      2.000000
  0.166667  0.083333  0.500000      8.000000
  0.416667  0.083333  0.500000      4.000000
 -0.416667  0.083333  0.500000      4.000000
 -0.333333  0.083333  0.500000      8.000000
 -0.083333  0.083333  0.500000      4.000000
[...]
 k-point 15 :  -0.3333 0.0833-0.0000  plane waves:     356
 k-point 16 :  -0.2500 0.0833-0.0000  plane waves:     348
 k-point 17 :  -0.1667 0.0833-0.0000  plane waves:     355
 k-point 18 :  -0.0833 0.0833-0.0000  plane waves:     345
 k-point 19 :   0.1667 0.1667 0.0000  plane waves:     351
 k-point 20 :   0.2500 0.1667 0.0000  plane waves:     351
 k-point 21 :   0.3333 0.1667 0.0000  plane waves:     351
 k-point 22 :   0.4167 0.1667-0.0000  plane waves:     358
 k-point 23 :   0.5000 0.1667-0.0000  plane waves:     359
 k-point 24 :  -0.4167 0.1667 0.0000  plane waves:     363
 k-point 25 :  -0.3333 0.1667-0.0000  plane waves:     357
 k-point 26 :  -0.2500 0.1667 0.0000  plane waves:     357
 k-point 27 :  -0.1667 0.1667-0.0000  plane waves:     357
 k-point 28 :   0.2500 0.2500-0.0000  plane waves:     351
 k-point 29 :   0.3333 0.2500 0.0000  plane waves:     353
 k-point 30 :   0.4167 0.2500-0.0000  plane waves:     353
 k-point 31 :   0.5000 0.2500 0.0000  plane waves:     362
 k-point 32 :  -0.4167 0.2500 0.0000  plane waves:     363
 k-point 33 :  -0.3333 0.2500-0.0000  plane waves:     361
 k-point 34 :  -0.2500 0.2500 0.0000  plane waves:     363
 k-point 35 :   0.3333 0.3333 0.0000  plane waves:     355
 k-point 36 :   0.4167 0.3333 0.0000  plane waves:     354
 k-point 37 :   0.5000 0.3333 0.0000  plane waves:     360
 k-point 38 :  -0.4167 0.3333 0.0000  plane waves:     363
 k-point 39 :  -0.3333 0.3333 0.0000  plane waves:     353
 k-point 40 :   0.4167 0.4167-0.0000  plane waves:     359
 k-point 41 :   0.5000 0.4167 0.0000  plane waves:     356
 k-point 42 :  -0.4167 0.4167 0.0000  plane waves:     359
 k-point 43 :   0.5000 0.5000-0.0000  plane waves:     342
 k-point 44 :   0.0000 0.0000 0.1250  plane waves:     344
 k-point 45 :   0.0833 0.0000 0.1250  plane waves:     343
 k-point 46 :   0.1667 0.0000 0.1250  plane waves:     349
 k-point 47 :   0.2500 0.0000 0.1250  plane waves:     353
 k-point 48 :   0.3333 0.0000 0.1250  plane waves:     354
 k-point 49 :   0.4167 0.0000 0.1250  plane waves:     358
 k-point 50 :   0.5000 0.0000 0.1250  plane waves:     361
 k-point 51 :  -0.4167-0.0000 0.1250  plane waves:     361
 k-point 52 :  -0.3333-0.0000 0.1250  plane waves:     358
 k-point 53 :  -0.2500-0.0000 0.1250  plane waves:     355
 k-point 54 :  -0.1667-0.0000 0.1250  plane waves:     355
 k-point 55 :  -0.0833-0.0000 0.1250  plane waves:     351
 k-point 56 :   0.0833 0.0833 0.1250  plane waves:     339
 k-point 57 :   0.1667 0.0833 0.1250  plane waves:     346
 k-point 58 :   0.2500 0.0833 0.1250  plane waves:     352
 k-point 59 :   0.3333 0.0833 0.1250  plane waves:     355
 k-point 60 :   0.4167 0.0833 0.1250  plane waves:     357
[...]
 k-point 85 :  -0.2500 0.3333 0.1250  plane waves:     359
 k-point 86 :  -0.1667 0.3333 0.1250  plane waves:     355
 k-point 87 :  -0.0833 0.3333 0.1250  plane waves:     355
 k-point 88 :   0.4167 0.4167 0.1250  plane waves:     356
 k-point 89 :   0.5000 0.4167 0.1250  plane waves:     354
 k-point 90 :  -0.4167 0.4167 0.1250  plane waves:     357
 k-point 91 :  -0.3333 0.4167 0.1250  plane waves:     363
 k-point 92 :  -0.2500 0.4167 0.1250  plane waves:     364
 k-point 93 :  -0.1667 0.4167 0.1250  plane waves:     363
 k-point 94 :  -0.0833 0.4167 0.1250  plane waves:     360
 k-point 95 :   0.5000 0.5000 0.1250  plane waves:     360
 k-point 96 :  -0.4167 0.5000 0.1250  plane waves:     360
 k-point 97 :  -0.3333 0.5000 0.1250  plane waves:     362
 k-point 98 :  -0.2500 0.5000 0.1250  plane waves:     361
 k-point 99 :  -0.1667 0.5000 0.1250  plane waves:     364
 k-point ** :  -0.0833 0.5000 0.1250  plane waves:     364
 k-point ** :  -0.4167-0.4167 0.1250  plane waves:     360
 k-point ** :  -0.3333-0.4167 0.1250  plane waves:     359
 k-point ** :  -0.2500-0.4167 0.1250  plane waves:     353
 k-point ** :  -0.1667-0.4167 0.1250  plane waves:     361
 k-point ** :  -0.0833-0.4167 0.1250  plane waves:     362
 k-point ** :  -0.3333-0.3333 0.1250  plane waves:     356
 k-point ** :  -0.2500-0.3333 0.1250  plane waves:     351
 k-point ** :  -0.1667-0.3333 0.1250  plane waves:     355
 k-point ** :  -0.0833-0.3333 0.1250  plane waves:     355
 k-point ** :  -0.2500-0.2500 0.1250  plane waves:     351
 k-point ** :  -0.1667-0.2500 0.1250  plane waves:     353
 k-point ** :  -0.0833-0.2500 0.1250  plane waves:     352
 k-point ** :  -0.1667-0.1667 0.1250  plane waves:     354
 k-point ** :  -0.0833-0.1667 0.1250  plane waves:     352
 k-point ** :  -0.0833-0.0833 0.1250  plane waves:     351
 k-point ** :   0.1667 0.0833 0.2500  plane waves:     353
 k-point ** :   0.3333 0.0833 0.2500  plane waves:     352
 k-point ** :   0.4167 0.0833 0.2500  plane waves:     353
 k-point ** :   0.5000 0.0833 0.2500  plane waves:     362
 k-point ** :  -0.4167 0.0833 0.2500  plane waves:     364
 k-point ** :  -0.3333 0.0833 0.2500  plane waves:     362
 k-point ** :  -0.2500 0.0833 0.2500  plane waves:     358
 k-point ** :  -0.1667 0.0833 0.2500  plane waves:     353
 k-point ** :  -0.0833 0.0833 0.2500  plane waves:     355
 k-point ** :   0.4167 0.3333 0.2500  plane waves:     356
 k-point ** :  -0.4167 0.3333 0.2500  plane waves:     362
 k-point ** :  -0.3333 0.3333 0.2500  plane waves:     365
 k-point ** :  -0.2500 0.3333 0.2500  plane waves:     363
 k-point ** :  -0.1667 0.3333 0.2500  plane waves:     353
 k-point ** :  -0.0833 0.3333 0.2500  plane waves:     349
 k-point ** :  -0.4167 0.4167 0.2500  plane waves:     362
 k-point ** :  -0.3333 0.4167 0.2500  plane waves:     363
 k-point ** :  -0.2500 0.4167 0.2500  plane waves:     365
 k-point ** :  -0.1667 0.4167 0.2500  plane waves:     360
 k-point ** :  -0.2500 0.5000 0.2500  plane waves:     360
 k-point ** :  -0.3333-0.4167 0.2500  plane waves:     364
 k-point ** :   0.0000 0.0000 0.3750  plane waves:     353
 k-point ** :   0.0833 0.0000 0.3750  plane waves:     357
 k-point ** :   0.1667 0.0000 0.3750  plane waves:     356
 k-point ** :   0.3333 0.0000 0.3750  plane waves:     353
 k-point ** :   0.4167 0.0000 0.3750  plane waves:     355
 k-point ** :  -0.4167-0.0000 0.3750  plane waves:     362
 k-point ** :  -0.3333-0.0000 0.3750  plane waves:     362
 k-point ** :  -0.2500-0.0000 0.3750  plane waves:     363
 k-point ** :  -0.1667-0.0000 0.3750  plane waves:     359
 k-point ** :  -0.0833-0.0000 0.3750  plane waves:     355
 k-point ** :   0.0833 0.0833 0.3750  plane waves:     354
 k-point ** :   0.1667 0.0833 0.3750  plane waves:     355
 k-point ** :   0.3333 0.0833 0.3750  plane waves:     354
 k-point ** :   0.4167 0.0833 0.3750  plane waves:     353
 k-point ** :  -0.4167 0.0833 0.3750  plane waves:     359
 k-point ** :  -0.3333 0.0833 0.3750  plane waves:     367
 k-point ** :  -0.2500 0.0833 0.3750  plane waves:     362
 k-point ** :  -0.1667 0.0833 0.3750  plane waves:     360
 k-point ** :  -0.0833 0.0833 0.3750  plane waves:     358
 k-point ** :   0.1667 0.1667 0.3750  plane waves:     357
 k-point ** :   0.3333 0.1667 0.3750  plane waves:     352
 k-point ** :   0.4167 0.1667 0.3750  plane waves:     351
 k-point ** :  -0.4167 0.1667 0.3750  plane waves:     359
[...]
 k-point ** :  -0.3333-0.3333 0.3750  plane waves:     362
 k-point ** :  -0.1667-0.3333 0.3750  plane waves:     365
 k-point ** :  -0.0833-0.3333 0.3750  plane waves:     363
 k-point ** :  -0.1667-0.2500 0.3750  plane waves:     364
 k-point ** :  -0.1667-0.1667 0.3750  plane waves:     363
 k-point ** :  -0.0833-0.1667 0.3750  plane waves:     362
 k-point ** :  -0.0833-0.0833 0.3750  plane waves:     358
 k-point ** :   0.1667 0.0833 0.5000  plane waves:     359
 k-point ** :   0.4167 0.0833 0.5000  plane waves:     357
 k-point ** :  -0.4167 0.0833 0.5000  plane waves:     358
 k-point ** :  -0.3333 0.0833 0.5000  plane waves:     363
 k-point ** :  -0.0833 0.0833 0.5000  plane waves:     360
 k-point ** :   0.3333 0.1667 0.5000  plane waves:     357
 k-point ** :  -0.3333 0.1667 0.5000  plane waves:     360
 k-point ** :  -0.1667 0.1667 0.5000  plane waves:     366

 maximum and minimum number of plane-waves per node :       368      338

 maximum number of plane-waves:       368
 maximum index in each direction:
   IXMAX=    5   IYMAX=    5   IZMAX=    4
   IXMIN=   -5   IYMIN=   -5   IZMIN=   -5

 WARNING: aliasing errors must be expected set NGX to  22 to avoid them
 WARNING: aliasing errors must be expected set NGY to  22 to avoid them
 NGZ is ok and might be reduce to  20
 aliasing errors are usually negligible using standard VASP settings
 and one can safely disregard these warnings

 serial   3D FFT for wavefunctions
 parallel 3D FFT for charge:
    minimum data exchange during FFTs selected (reduces bandwidth)

 Broyden mixing: mesh for mixing (old mesh)
   NGX =  9   NGY =  9   NGZ =  9
  (NGX  = 40   NGY  = 40   NGZ  = 40)
  gives a total of    729 points

 initial charge density was supplied:
 charge density of overlapping atoms calculated
 number of electron       8.0000000 magnetization
 keeping initial charge density in first step

 Maximum index for augmentation-charges        13115 (set IRDMAX)

 First call to EWALD:  gamma=   0.928
 Maximum number of real-space cells 3x 3x 3
 Maximum number of reciprocal cells 3x 3x 3

 FEWALD executed in parallel

----------------------------------------- Iteration    1(   1)  ---------------------------------------

 BZINTS: Fermi energy: 26.758658;  8.000000 electrons
         Band energy:  60.724907;  BLOECHL correction: -0.183685

 eigenvalue-minimisations  :  3200
 total energy-change (2. order) : 0.1366485E+02  (-0.7719252E+03)
 number of electron       8.0000000 magnetization
 augmentation part        8.0000000 magnetization

 Free energy of the ion-electron system (eV)
  alpha Z        PSCENC =        46.79549121
  Ewald energy   TEWEN  =      -409.40279112
  -Hartree energ DENC   =        -8.68789907
  -exchange      EXHF   =         0.00000000
  -V(xc)+E(xc)   XCENC  =        32.22725361
  PAW double counting   =        75.66288619      -77.96384553
  entropy T*S    EENTRO =         0.00000000
  eigenvalues    EBANDS =        60.72490662
  atomic energy  EATOM  =       294.30884690
  free energy    TOTEN  =        13.66484881 eV

  energy without entropy =       13.66484881  energy(sigma->0) =       13.66484881

[...]

 eigenvalue-minimisations  :  4576
 total energy-change (2. order) :-0.2888076E+02  (-0.2860626E+02)
 number of electron       8.0000000 magnetization
 augmentation part        8.0000000 magnetization

[...]

 Broyden mixing:
  rms(total) = 0.82319E+00    rms(broyden)= 0.82318E+00
  rms(prec ) = 0.34148E+01
  weight for this iteration     100.00

[...]

 eigenvalues of (default mixing * dielectric matrix)
  average eigenvalue GAMMA=   2.0631
  2.0631

[...]

 eigenvalue-minimisations  :  3712
 total energy-change (2. order) :-0.1942251E-05  (-0.2786934E-06)
 number of electron       8.0000000 magnetization
 augmentation part        0.2897764 magnetization

[...]

 Broyden mixing:
  rms(total) = 0.61546E-05    rms(broyden)= 0.61404E-05
  rms(prec ) = 0.23389E-04
  weight for this iteration     100.00

 eigenvalues of (default mixing * dielectric matrix)
  average eigenvalue GAMMA=   1.8391
  2.0506  2.7877  2.6049  2.4995  0.9977  0.9977  0.9354

[...]

----------------------------------------- Iteration    1(  13)  ---------------------------------------

 BZINTS: Fermi energy: 18.369957;  8.000000 electrons
         Band energy:  44.874361;  BLOECHL correction:  0.000000

 eigenvalue-minimisations  :  1752
 total energy-change (2. order) : 0.1948194E-08  (-0.2045976E-10)
 number of electron       8.0000000 magnetization
 augmentation part        0.2897717 magnetization

 Free energy of the ion-electron system (eV)
  alpha Z        PSCENC =        46.79549121
  Ewald energy   TEWEN  =      -409.40279112
  -Hartree energ DENC   =       -20.27801390
  -exchange      EXHF   =         0.00000000
  -V(xc)+E(xc)   XCENC  =        33.35697652
  PAW double counting   =       226.44558923     -229.41006034
  entropy T*S    EENTRO =         0.00000000
  eigenvalues    EBANDS =        44.87436103
  atomic energy  EATOM  =       294.30884690
  free energy    TOTEN  =       -13.30960047 eV

  energy without entropy =      -13.30960047  energy(sigma->0) =      -13.30960047

 average (electrostatic) potential at core
  the test charge radii are     0.6991
  (the norm of the test charge is              1.0000)
       1 -37.8151       2 -37.8151

 E-fermi :  18.3700     XC(G=0): -15.8094     alpha+bet :-28.8278

 k-point     1 :       0.0000    0.0000    0.0000
  band No.  band energies     occupation
      1     -10.9935      2.00000
      2      18.2339      2.00000
      3      18.2339      2.00000
      4      18.2339      2.00000
      5      25.1909      0.00000
      6      25.1909      0.00000
      7      25.1909      0.00000
      8      44.0856      0.00000

[...]

 k-point   194 :      -0.1667    0.1667    0.5000
  band No.  band energies     occupation
      1       0.5072      2.00000
      2       0.9903      2.00000
      3       7.2320      2.00000
      4       8.6679      2.00000
      5      28.5487      0.00000
      6      32.3626      0.00000
      7      39.3061      0.00000
      8      39.6207      0.00000

 soft charge-density along one line, spin component           1
         0         1         2         3         4         5         6         7         8         9
 total charge-density along one line

------------------------ aborting loop because EDIFF is reached ----------------------------------------

         DFTD3 V3.0 Rev 1
 IVDW         = 12
 DF pbe
 parameters
 VDW_S6       =    1.0000
 VDW_S8       =    0.7875
 VDW_A1       =    0.4289
 VDW_A2       =    4.4407
 k1-k3        =   16.0000    1.3333   -4.0000
 VDW_RADIUS   =   50.2022 A
 VDW_CNRADIUS =   21.1671 A
 Edisp (eV)   -0.62576

 E6    (eV) :    -0.4458
 E8    (eV) :    -0.1800
 % E8        : 28.76

  FORCE on cell =-STRESS in cart. coord.  units (eV):
  Direction    XX          YY          ZZ          XY          YZ          ZX
  Alpha Z    46.79549    46.79549    46.79549
  Ewald    -136.46765  -136.46766  -136.46767     0.00000     0.00000     0.00000
  Hartree     6.75934     6.75934     6.75934     0.00000     0.00000     0.00000
  E(xc)     -33.73441   -33.73441   -33.73441     0.00000     0.00000     0.00000
  Local      -3.44705    -3.44704    -3.44703    -0.00001    -0.00000    -0.00000
  n-local   -12.49733   -12.19272   -12.13348    -0.16751    -0.40095     1.02551
  augment    -1.39257    -1.39257    -1.39257     0.00000     0.00000     0.00000
  Kinetic   153.35355   157.83668   156.90030     3.92339     1.73277    -1.11480
  Fock        0.00000     0.00000     0.00000     0.00000     0.00000     0.00000
  vdW        -0.63602    -0.63602    -0.63602     0.00000     0.00000     0.00000
  Total      21.63279    21.63279    21.63279    -0.00000    -0.00000    -0.00000
  in kB    4976.39917  4976.39917  4976.39917    -0.00000    -0.00000    -0.00000

 VOLUME and BASIS-vectors are now :
  energy-cutoff  :      800.00
  volume of cell :        6.96
      direct lattice vectors                 reciprocal lattice vectors
     2.143586226  0.000000000  0.000000000     0.466507943 -0.269338486 -0.190451070
     1.071793113  1.856400127  0.000000000     0.000000000  0.538676972 -0.190451070
     1.071793113  0.618800042  1.750230824     0.000000000  0.000000000  0.571353210

  length of vectors
     2.143586226  2.143586226  2.143586226     0.571353210  0.571353210  0.571353210

 FORCES acting on ions
    electron-ion (+dipol)            ewald-force                    non-local-force                 convergence-correction
   -.361E-05 -.208E-05 -.176E-05   -.223E-05 -.129E-05 -.363E-05   0.312E-16 0.954E-17 0.694E-17   -.372E-09 -.215E-09 -.152E-09
   0.300E-06 0.174E-06 0.447E-05   0.223E-05 0.129E-05 0.363E-05   -.226E-16 -.156E-16 -.694E-17   0.371E-09 0.214E-09 0.153E-09
   -.331E-05 -.191E-05 0.271E-05   0.142E-14 -.490E-15 0.928E-16   0.867E-17 -.607E-17 0.000E+00   -.986E-12 -.574E-12 0.794E-12

 POSITION                                       TOTAL-FORCE (eV/Angst)
      0.00000      0.00000      0.00000         0.000000      0.000000     -0.000000
      1.07179      0.61880      0.43756        -0.000000     -0.000000      0.000000
    total drift:                               -0.000003     -0.000002      0.000003

  FREE ENERGIE OF THE ION-ELECTRON SYSTEM (eV)
  free  energy   TOTEN  =       -13.93536339 eV

  energy  without entropy=      -13.93536339  energy(sigma->0) =      -13.93536339

 reached required accuracy - stopping structural energy minimisation
 BZINTS: Fermi energy: 18.369957;  8.000000 electrons
         Band energy:  44.874361;  BLOECHL correction:  0.000000