 vasp.5.3.5 31Mar14 (build Nov 02 2014 15:17:37) complex

 executed on        ion-Intel-MKL date 2016.08.12  22:15:09

 INCAR:
 POTCAR:   PAW_PBE C 08Apr2002
 POTCAR:   PAW_PBE C 08Apr2002
   VRHFIN =C: s2p2

   TITEL  = PAW_PBE C 08Apr2002
   POMASS =   12.011; ZVAL   =    4.000    mass and valenz
   ENMAX  =  400.000; ENMIN  =  300.000 eV
   QCUT   =   -5.516; QGAM   =   11.032    optimization parameters

   Description
     l     E      TYP  RCUT    TYP  RCUT
     0   .000     23  1.200
     0   .000     23  1.200
     1   .000     23  1.500
     1  2.500     23  1.500
     2   .000      7  1.500

 PAW_PBE C 08Apr2002                    :

 POSCAR: CIF file
  positions in direct lattice
  velocities in cartesian coordinates
 exchange correlation table for  LEXCH =        8
   RHO(1)=    0.500       N(1)  =     2000
   RHO(2)=  100.500       N(2)  =     4000

 ion  position               nearest neighbor table
   1  1.000  0.000  0.250-   3 1.42   3 1.42   3 1.42
   2  0.000  1.000  0.750-   4 1.42   4 1.42   4 1.42
   3  0.333  0.667  0.250-   1 1.42   1 1.42   1 1.42
   4  0.667  0.333  0.750-   2 1.42   2 1.42   2 1.42

  LATTYP: Found a base centered orthorhombic cell.
 ALAT       =     2.4669628383
 B/A-ratio  =     1.7322311103
 C/A-ratio  =     1.7721112111

  Lattice vectors:

 A1 = (   2.4671554424,  -0.0001112000,   0.0000000000)
 A2 = (  -1.2336740232,   2.1365636881,   0.0000000000)
 A3 = (   0.0000000000,   0.0000000000,   4.3717325030)

Analysis of symmetry for initial positions (statically):
 Subroutine PRICEL returns:
 Original cell was already a primitive cell.

 Routine SETGRP: Setting up the symmetry group for a
 base centered orthorhombic supercell.

 Subroutine GETGRP returns: Found  8 space group operations
 (whereof  4 operations were pure point group operations)
 out of a pool of  8 trial point group operations.

The static configuration has the point symmetry C_2h.
 The point group associated with its full space group is D_2h.

Analysis of symmetry for dynamics (positions and initial velocities):
 Subroutine PRICEL returns:
 Original cell was already a primitive cell.

 Routine SETGRP: Setting up the symmetry group for a
 base centered orthorhombic supercell.

 Subroutine GETGRP returns: Found  8 space group operations
 (whereof  4 operations were pure point group operations)
 out of a pool of  8 trial point group operations.

The dynamic configuration has the point symmetry C_2h.
 The point group associated with its full space group is D_2h.

 KPOINTS: B4C B11C-CBC

Automatic generation of k-mesh.
Space group operators:
 irot       det(A)        alpha          n_x          n_y          n_z        tau_x        tau_y        tau_z
    1     1.000000     0.000001     1.000000     0.000000     0.000000     0.000000     0.000000     0.000000
    2    -1.000000     0.000001     1.000000     0.000000     0.000000     0.000000     0.000000     0.000000
    3     1.000000   180.000000    -0.500000    -0.866025     0.000000     0.000000     0.000000     0.000000
    4    -1.000000   180.000000    -0.500000    -0.866025     0.000000     0.000000     0.000000     0.000000
    5     1.000000   179.999999     0.000000     0.000000     1.000000     0.000000     0.000000     0.500000
    6    -1.000000   179.999999     0.000000     0.000000     1.000000     0.000000     0.000000     0.500000
    7     1.000000   179.999999     0.866025    -0.500000     0.000000     0.000000     0.000000     0.500000
    8    -1.000000   179.999999     0.866025    -0.500000     0.000000     0.000000     0.000000     0.500000

 Subroutine IBZKPT returns following result:

 Found    455 irreducible k-points:

 Following reciprocal coordinates:
            Coordinates               Weight
  0.000000  0.000000  0.000000      1.000000
  0.055556 -0.000000  0.000000      4.000000
  0.111111 -0.000000  0.000000      4.000000
  0.166667 -0.000000  0.000000      4.000000
  0.222222 -0.000000  0.000000      4.000000
  0.277778  0.000000  0.000000      4.000000
  0.333333 -0.000000  0.000000      4.000000
  0.388889 -0.000000  0.000000      4.000000
  0.444444 -0.000000  0.000000      4.000000
  0.500000  0.000000  0.000000      2.000000
  0.055556  0.055556  0.000000      2.000000
  0.111111  0.055556  0.000000      4.000000
  0.166667  0.055556  0.000000      4.000000
  0.222222  0.055556  0.000000      4.000000
  0.277778  0.055556  0.000000      4.000000
  0.333333  0.055556  0.000000      4.000000
  0.388889  0.055556  0.000000      4.000000
  0.444444  0.055556  0.000000      4.000000
  0.500000  0.055556  0.000000      4.000000
 -0.444444  0.055556  0.000000      4.000000
 -0.388889  0.055556  0.000000      4.000000
 -0.333333  0.055556  0.000000      4.000000
 -0.277778  0.055556  0.000000      4.000000
 -0.222222  0.055556  0.000000      4.000000
 -0.166667  0.055556  0.000000      4.000000
 -0.111111  0.055556  0.000000      4.000000
 -0.055556  0.055556  0.000000      2.000000
  0.111111  0.111111  0.000000      2.000000
  0.166667  0.111111  0.000000      4.000000
  0.222222  0.111111  0.000000      4.000000
  0.277778  0.111111  0.000000      4.000000
  0.333333  0.111111  0.000000      4.000000
  0.388889  0.111111  0.000000      4.000000
  0.444444  0.111111  0.000000      4.000000
  0.500000  0.111111  0.000000      4.000000
 -0.444444  0.111111  0.000000      4.000000
 -0.388889  0.111111  0.000000      4.000000
 -0.333333  0.111111  0.000000      4.000000
 -0.277778  0.111111  0.000000      4.000000
 -0.222222  0.111111  0.000000      4.000000
 -0.166667  0.111111  0.000000      4.000000
 -0.111111  0.111111  0.000000      2.000000
  0.166667  0.166667  0.000000      2.000000
  0.222222  0.166667  0.000000      4.000000
  0.277778  0.166667  0.000000      4.000000
  0.333333  0.166667  0.000000      4.000000
  0.388889  0.166667  0.000000      4.000000
  0.444444  0.166667  0.000000      4.000000
  0.500000  0.166667  0.000000      4.000000
 -0.444444  0.166667  0.000000      4.000000
 -0.388889  0.166667  0.000000      4.000000
 -0.333333  0.166667  0.000000      4.000000
 -0.277778  0.166667  0.000000      4.000000
 -0.222222  0.166667  0.000000      4.000000
 -0.166667  0.166667  0.000000      2.000000
  0.222222  0.222222  0.000000      2.000000
  0.277778  0.222222  0.000000      4.000000
  0.333333  0.222222  0.000000      4.000000
  0.388889  0.222222  0.000000      4.000000
  0.444444  0.222222  0.000000      4.000000
[...]
  0.388889  0.333333  0.500000      4.000000
  0.444444  0.333333  0.500000      4.000000
  0.500000  0.333333  0.500000      4.000000
 -0.444444  0.333333  0.500000      4.000000
 -0.388889  0.333333  0.500000      4.000000
 -0.333333  0.333333  0.500000      2.000000
  0.388889  0.388889  0.500000      2.000000
  0.444444  0.388889  0.500000      4.000000
  0.500000  0.388889  0.500000      4.000000
 -0.444444  0.388889  0.500000      4.000000
 -0.388889  0.388889  0.500000      2.000000
  0.444444  0.444444  0.500000      2.000000
  0.500000  0.444444  0.500000      4.000000
 -0.444444  0.444444  0.500000      2.000000
  0.500000  0.500000  0.500000      1.000000

 Following cartesian coordinates:
            Coordinates               Weight
  0.000000  0.000000  0.000000      1.000000
  0.022519  0.013002  0.000000      4.000000
  0.045037  0.026005  0.000000      4.000000
  0.067556  0.039007  0.000000      4.000000
  0.090075  0.052010  0.000000      4.000000
  0.112593  0.065012  0.000000      4.000000
  0.135112  0.078015  0.000000      4.000000
  0.157631  0.091017  0.000000      4.000000
  0.180149  0.104020  0.000000      4.000000
  0.202668  0.117022  0.000000      2.000000
  0.022520  0.039005  0.000000      2.000000
  0.045038  0.052008  0.000000      4.000000
  0.067557  0.065010  0.000000      4.000000
  0.090076  0.078013  0.000000      4.000000
  0.112594  0.091015  0.000000      4.000000
  0.135113  0.104018  0.000000      4.000000
  0.157632  0.117020  0.000000      4.000000
  0.180150  0.130023  0.000000      4.000000
  0.202669  0.143025  0.000000      4.000000
 -0.180148 -0.078017  0.000000      4.000000
 -0.157629 -0.065015  0.000000      4.000000
 -0.135111 -0.052012  0.000000      4.000000
 -0.112592 -0.039010  0.000000      4.000000
 -0.090073 -0.026007  0.000000      4.000000
 -0.067555 -0.013005  0.000000      4.000000
 -0.045036 -0.000002  0.000000      4.000000
 -0.022517  0.013000  0.000000      2.000000
  0.045040  0.078011  0.000000      2.000000
  0.067558  0.091013  0.000000      4.000000
  0.090077  0.104016  0.000000      4.000000
  0.112596  0.117018  0.000000      4.000000
  0.135114  0.130021  0.000000      4.000000
  0.157633  0.143023  0.000000      4.000000
  0.180152  0.156026  0.000000      4.000000
  0.202670  0.169028  0.000000      4.000000
 -0.180147 -0.052014  0.000000      4.000000
 -0.157628 -0.039012  0.000000      4.000000
 -0.135110 -0.026009  0.000000      4.000000
 -0.112591 -0.013007  0.000000      4.000000
 -0.090072 -0.000004  0.000000      4.000000
 -0.067554  0.012998  0.000000      4.000000
 -0.045035  0.026001  0.000000      2.000000
  0.067559  0.117016  0.000000      2.000000
  0.090078  0.130019  0.000000      4.000000
  0.112597  0.143021  0.000000      4.000000
  0.135115  0.156024  0.000000      4.000000
  0.157634  0.169026  0.000000      4.000000
  0.180153  0.182029  0.000000      4.000000
  0.202671  0.195031  0.000000      4.000000
 -0.180146 -0.026011  0.000000      4.000000
 -0.157627 -0.013009  0.000000      4.000000
 -0.135108 -0.000006  0.000000      4.000000
 -0.112590  0.012996  0.000000      4.000000
 -0.090071  0.025999  0.000000      4.000000
 -0.067552  0.039001  0.000000      2.000000
  0.090079  0.156022  0.000000      2.000000
  0.112598  0.169024  0.000000      4.000000
  0.135117  0.182027  0.000000      4.000000
  0.157635  0.195029  0.000000      4.000000
  0.180154  0.208032  0.000000      4.000000
[...]
  0.157638  0.247035  0.114371      4.000000
  0.180156  0.260038  0.114371      4.000000
  0.202675  0.273040  0.114371      4.000000
 -0.180142  0.051998  0.114371      4.000000
 -0.157623  0.065000  0.114371      4.000000
 -0.135105  0.078003  0.114371      2.000000
  0.157639  0.273038  0.114371      2.000000
  0.180157  0.286041  0.114371      4.000000
  0.202676  0.299043  0.114371      4.000000
 -0.180141  0.078001  0.114371      4.000000
 -0.157622  0.091003  0.114371      2.000000
  0.180159  0.312044  0.114371      2.000000
  0.202677  0.325046  0.114371      4.000000
 -0.180140  0.104004  0.114371      2.000000
  0.202678  0.351049  0.114371      1.000000

 TETIRR: Found   3888 inequivalent tetrahedra from    15552

 I would recommend the setting:
   dimension x,y,z NGX =    20 NGY =   20 NGZ =   35
 SYSTEM =  graphite
 POSCAR =  CIF file

 Startparameter for this run:
   NWRITE =      2    write-flag & timer
   PREC   = accura    normal or accurate (medium, high low for compatibility)
   ISTART =      0    job   : 0-new  1-cont  2-samecut
   ICHARG =      2    charge: 1-file 2-atom 10-const
   ISPIN  =      1    spin polarized calculation?
   LNONCOLLINEAR =      F non collinear calculations
   LSORBIT =      F    spin-orbit coupling
[...]
 k-point 29 :   0.1667 0.1111 0.0000  plane waves:     764
 k-point 30 :   0.2222 0.1111 0.0000  plane waves:     769
 k-point 31 :   0.2778 0.1111 0.0000  plane waves:     768
 k-point 32 :   0.3333 0.1111 0.0000  plane waves:     777
 k-point 33 :   0.3889 0.1111 0.0000  plane waves:     775
 k-point 34 :   0.4444 0.1111 0.0000  plane waves:     775
 k-point 35 :   0.5000 0.1111 0.0000  plane waves:     775
 k-point 36 :  -0.4444 0.1111 0.0000  plane waves:     777
 k-point 37 :  -0.3889 0.1111 0.0000  plane waves:     768
 k-point 38 :  -0.3333 0.1111 0.0000  plane waves:     769
 k-point 39 :  -0.2778 0.1111 0.0000  plane waves:     764
 k-point 40 :  -0.2222 0.1111 0.0000  plane waves:     761
 k-point 41 :  -0.1667 0.1111 0.0000  plane waves:     758
 k-point 42 :  -0.1111 0.1111 0.0000  plane waves:     751
 k-point 43 :   0.1667 0.1667 0.0000  plane waves:     759
 k-point 44 :   0.2222 0.1667 0.0000  plane waves:     766
 k-point 45 :   0.2778 0.1667 0.0000  plane waves:     777
 k-point 46 :   0.3333 0.1667 0.0000  plane waves:     781
 k-point 47 :   0.3889 0.1667 0.0000  plane waves:     777
 k-point 48 :   0.4444 0.1667 0.0000  plane waves:     777
 k-point 49 :   0.5000 0.1667 0.0000  plane waves:     781
 k-point 50 :  -0.4444 0.1667 0.0000  plane waves:     777
 k-point 51 :  -0.3889 0.1667 0.0000  plane waves:     766
 k-point 52 :  -0.3333 0.1667 0.0000  plane waves:     759
 k-point 53 :  -0.2778 0.1667 0.0000  plane waves:     764
 k-point 54 :  -0.2222 0.1667 0.0000  plane waves:     761
 k-point 55 :  -0.1667 0.1667 0.0000  plane waves:     767
 k-point 56 :   0.2222 0.2222 0.0000  plane waves:     783
 k-point 57 :   0.2778 0.2222 0.0000  plane waves:     780
 k-point 58 :   0.3333 0.2222 0.0000  plane waves:     782
 k-point 59 :   0.3889 0.2222 0.0000  plane waves:     783
 k-point 60 :   0.4444 0.2222 0.0000  plane waves:     782
[...]
 k-point 85 :   0.5000 0.3889 0.0000  plane waves:     775
 k-point 86 :  -0.4444 0.3889 0.0000  plane waves:     768
 k-point 87 :  -0.3889 0.3889 0.0000  plane waves:     766
 k-point 88 :   0.4444 0.4444 0.0000  plane waves:     775
 k-point 89 :   0.5000 0.4444 0.0000  plane waves:     772
 k-point 90 :  -0.4444 0.4444 0.0000  plane waves:     766
 k-point 91 :   0.5000 0.5000 0.0000  plane waves:     764
 k-point 92 :   0.0000 0.0000 0.1250  plane waves:     743
 k-point 93 :   0.0556-0.0000 0.1250  plane waves:     750
 k-point 94 :   0.1111-0.0000 0.1250  plane waves:     752
 k-point 95 :   0.1667-0.0000 0.1250  plane waves:     759
 k-point 96 :   0.2222-0.0000 0.1250  plane waves:     763
 k-point 97 :   0.2778 0.0000 0.1250  plane waves:     767
 k-point 98 :   0.3333-0.0000 0.1250  plane waves:     765
 k-point 99 :   0.3889-0.0000 0.1250  plane waves:     776
 k-point ** :   0.4444-0.0000 0.1250  plane waves:     773
 k-point ** :   0.5000 0.0000 0.1250  plane waves:     770
 k-point ** :   0.0556 0.0556 0.1250  plane waves:     755
 k-point ** :   0.1111 0.0556 0.1250  plane waves:     757
 k-point ** :   0.1667 0.0556 0.1250  plane waves:     761
 k-point ** :   0.2222 0.0556 0.1250  plane waves:     764
 k-point ** :   0.2778 0.0556 0.1250  plane waves:     767
 k-point ** :   0.3333 0.0556 0.1250  plane waves:     770
 k-point ** :   0.3889 0.0556 0.1250  plane waves:     769
 k-point ** :   0.4444 0.0556 0.1250  plane waves:     772
 k-point ** :   0.5000 0.0556 0.1250  plane waves:     772
 k-point ** :  -0.4444 0.0556 0.1250  plane waves:     769
 k-point ** :  -0.3889 0.0556 0.1250  plane waves:     769
 k-point ** :  -0.3333 0.0556 0.1250  plane waves:     767
 k-point ** :  -0.2778 0.0556 0.1250  plane waves:     764
 k-point ** :  -0.2222 0.0556 0.1250  plane waves:     761
 k-point ** :  -0.1667 0.0556 0.1250  plane waves:     757
 k-point ** :  -0.1111 0.0556 0.1250  plane waves:     755
 k-point ** :  -0.0556 0.0556 0.1250  plane waves:     750
 k-point ** :   0.1111 0.1111 0.1250  plane waves:     757
 k-point ** :   0.1667 0.1111 0.1250  plane waves:     765
 k-point ** :   0.2222 0.1111 0.1250  plane waves:     765
 k-point ** :   0.2778 0.1111 0.1250  plane waves:     767
 k-point ** :   0.3333 0.1111 0.1250  plane waves:     773
 k-point ** :   0.3889 0.1111 0.1250  plane waves:     774
 k-point ** :   0.4444 0.1111 0.1250  plane waves:     773
 k-point ** :   0.5000 0.1111 0.1250  plane waves:     774
 k-point ** :  -0.4444 0.1111 0.1250  plane waves:     773
 k-point ** :  -0.3889 0.1111 0.1250  plane waves:     767
 k-point ** :  -0.3333 0.1111 0.1250  plane waves:     765
 k-point ** :  -0.2778 0.1111 0.1250  plane waves:     765
 k-point ** :  -0.2222 0.1111 0.1250  plane waves:     759
 k-point ** :  -0.1667 0.1111 0.1250  plane waves:     757
 k-point ** :  -0.1111 0.1111 0.1250  plane waves:     752
 k-point ** :   0.1667 0.1667 0.1250  plane waves:     765
 k-point ** :   0.2222 0.1667 0.1250  plane waves:     766
 k-point ** :   0.2778 0.1667 0.1250  plane waves:     772
 k-point ** :   0.3333 0.1667 0.1250  plane waves:     777
 k-point ** :   0.3889 0.1667 0.1250  plane waves:     775
 k-point ** :   0.4444 0.1667 0.1250  plane waves:     775
 k-point ** :   0.5000 0.1667 0.1250  plane waves:     777
 k-point ** :  -0.4444 0.1667 0.1250  plane waves:     772
 k-point ** :  -0.3889 0.1667 0.1250  plane waves:     766
 k-point ** :  -0.3333 0.1667 0.1250  plane waves:     765
 k-point ** :  -0.2778 0.1667 0.1250  plane waves:     765
 k-point ** :  -0.2222 0.1667 0.1250  plane waves:     761
 k-point ** :  -0.1667 0.1667 0.1250  plane waves:     759
 k-point ** :   0.2222 0.2222 0.1250  plane waves:     778
 k-point ** :   0.2778 0.2222 0.1250  plane waves:     776
 k-point ** :   0.3333 0.2222 0.1250  plane waves:     781
 k-point ** :   0.3889 0.2222 0.1250  plane waves:     785
 k-point ** :   0.4444 0.2222 0.1250  plane waves:     781
 k-point ** :   0.5000 0.2222 0.1250  plane waves:     776
 k-point ** :  -0.4444 0.2222 0.1250  plane waves:     778
 k-point ** :  -0.3889 0.2222 0.1250  plane waves:     766
 k-point ** :  -0.3333 0.2222 0.1250  plane waves:     765
 k-point ** :  -0.2778 0.2222 0.1250  plane waves:     764
 k-point ** :  -0.2222 0.2222 0.1250  plane waves:     763
 k-point ** :   0.2778 0.2778 0.1250  plane waves:     791
 k-point ** :   0.3333 0.2778 0.1250  plane waves:     780
[...]
 k-point ** :   0.3889 0.3333 0.5000  plane waves:     782
 k-point ** :   0.4444 0.3333 0.5000  plane waves:     776
 k-point ** :   0.5000 0.3333 0.5000  plane waves:     768
 k-point ** :  -0.4444 0.3333 0.5000  plane waves:     772
 k-point ** :  -0.3889 0.3333 0.5000  plane waves:     768
 k-point ** :  -0.3333 0.3333 0.5000  plane waves:     766
 k-point ** :   0.3889 0.3889 0.5000  plane waves:     778
 k-point ** :   0.4444 0.3889 0.5000  plane waves:     776
 k-point ** :   0.5000 0.3889 0.5000  plane waves:     772
 k-point ** :  -0.4444 0.3889 0.5000  plane waves:     770
 k-point ** :  -0.3889 0.3889 0.5000  plane waves:     772
 k-point ** :   0.4444 0.4444 0.5000  plane waves:     774
 k-point ** :   0.5000 0.4444 0.5000  plane waves:     772
 k-point ** :  -0.4444 0.4444 0.5000  plane waves:     772
 k-point ** :   0.5000 0.5000 0.5000  plane waves:     772

 maximum and minimum number of plane-waves per node :       274      240

 maximum number of plane-waves:       791
 maximum index in each direction:
   IXMAX=    5   IYMAX=    4   IZMAX=    8
   IXMIN=   -5   IYMIN=   -5   IZMIN=   -9

 WARNING: aliasing errors must be expected set NGX to  22 to avoid them
 NGY is ok and might be reduce to  20
 NGZ is ok and might be reduce to  36
 aliasing errors are usually negligible using standard VASP settings
 and one can safely disregard these warnings

 parallel 3D FFT for wavefunctions:
    minimum data exchange during FFTs selected (reduces bandwidth)
 parallel 3D FFT for charge:
    minimum data exchange during FFTs selected (reduces bandwidth)

 Broyden mixing: mesh for mixing (old mesh)
   NGX =  9   NGY =  9   NGZ = 17
  (NGX  = 40   NGY  = 40   NGZ  = 72)
  gives a total of   1377 points

 initial charge density was supplied:
 charge density of overlapping atoms calculated
 number of electron      16.0000000 magnetization
 keeping initial charge density in first step

 Maximum index for augmentation-charges         1361 (set IRDMAX)

 First call to EWALD:  gamma=   0.623
 Maximum number of real-space cells 3x 3x 2
 Maximum number of reciprocal cells 2x 2x 4

 FEWALD executed in parallel

----------------------------------------- Iteration    1(   1)  ---------------------------------------

 BZINTS: Fermi energy: 18.766675; 16.000000 electrons
         Band energy:  57.383837;  BLOECHL correction: -0.554579

 eigenvalue-minimisations  : 10920
 total energy-change (2. order) : 0.3831079E+02  (-0.9528463E+03)
 number of electron      16.0000000 magnetization
 augmentation part       16.0000000 magnetization

 Free energy of the ion-electron system (eV)
  alpha Z        PSCENC =        56.57404652
  Ewald energy   TEWEN  =      -675.67117887
  -Hartree energ DENC   =       -41.30185752
  -exchange      EXHF   =         0.00000000
  -V(xc)+E(xc)   XCENC  =        57.32670792
  PAW double counting   =       151.32577238     -155.92769107
  entropy T*S    EENTRO =         0.00000000
  eigenvalues    EBANDS =        57.38383674
  atomic energy  EATOM  =       588.60115103
  free energy    TOTEN  =        38.31078714 eV

  energy without entropy =       38.31078714  energy(sigma->0) =       38.31078714

[...]

 eigenvalue-minimisations  : 14924
 total energy-change (2. order) :-0.7150148E+02  (-0.6522571E+02)
 number of electron      16.0000000 magnetization
 augmentation part       16.0000000 magnetization

[...]

 Broyden mixing:
  rms(total) = 0.77521E+00    rms(broyden)= 0.77512E+00
  rms(prec ) = 0.15538E+01
  weight for this iteration     100.00

[...]

 eigenvalues of (default mixing * dielectric matrix)
  average eigenvalue GAMMA=   2.0555
  2.0555

[...]

 eigenvalue-minimisations  : 12432
 total energy-change (2. order) :-0.8011744E-05  (-0.6136240E-06)
 number of electron      16.0000000 magnetization
 augmentation part        0.3893168 magnetization

 Broyden mixing:
  rms(total) = 0.11170E-03    rms(broyden)= 0.11166E-03
  rms(prec ) = 0.21374E-03
  weight for this iteration     100.00

 eigenvalues of (default mixing * dielectric matrix)
  average eigenvalue GAMMA=   1.7640
  2.8090  2.4694  1.9754  0.9602  1.1850  1.1850

[...]

----------------------------------------- Iteration    1(  12)  ---------------------------------------

 BZINTS: Fermi energy:  9.741066; 16.000000 electrons
         Band energy:   3.990894;  BLOECHL correction: -0.009468

 eigenvalue-minimisations  :  7660
 total energy-change (2. order) : 0.9229411E-06  (-0.7137801E-08)
 number of electron      16.0000000 magnetization
 augmentation part        0.3893168 magnetization

 Free energy of the ion-electron system (eV)
  alpha Z        PSCENC =        56.57404652
  Ewald energy   TEWEN  =      -675.67117887
  -Hartree energ DENC   =       -61.40495291
  -exchange      EXHF   =         0.00000000
  -V(xc)+E(xc)   XCENC  =        59.13128045
  PAW double counting   =       284.27310446     -289.48461522
  entropy T*S    EENTRO =         0.00000000
  eigenvalues    EBANDS =         3.99089353
  atomic energy  EATOM  =       588.60115103
  free energy    TOTEN  =       -33.99027100 eV

  energy without entropy =      -33.99027100  energy(sigma->0) =      -33.99027100

 average (electrostatic) potential at core
  the test charge radii are     0.6991
  (the norm of the test charge is              1.0000)
       1 -46.0457       2 -46.0457       3 -45.6038       4 -45.6038

 E-fermi :   9.7411     XC(G=0): -13.1436     alpha+bet :-17.4259

 k-point     1 :       0.0000    0.0000    0.0000
  band No.  band energies     occupation
      1     -12.0742      2.00000
      2      -8.1531      2.00000
      3      -2.1719      2.00000
      4       6.0411      2.00000
      5       6.0461      2.00000
      6       6.6865      2.00000
      7       6.6910      2.00000
      8       8.5298      2.00000
      9      17.1990      0.00000
     10      17.2017      0.00000
     11      18.1777      0.00000
     12      18.1814      0.00000

[...]

 k-point   455 :       0.5000    0.5000    0.5000
  band No.  band energies     occupation
      1      -5.2416      2.00000
      2      -5.2416      2.00000
      3      -4.1964      2.00000
      4      -4.1964      2.00000
      5       2.9491      2.00000
      6       2.9491      2.00000
      7       7.6754      2.00000
      8       7.6754      2.00000
      9      11.1885      0.00000
     10      11.1885      0.00000
     11      16.7162      0.00000
     12      16.7162      0.00000

 soft charge-density along one line, spin component           1
         0         1         2         3         4         5         6         7         8         9
 total charge-density along one line

------------------------ aborting loop because EDIFF is reached ----------------------------------------

         DFTD3 V3.0 Rev 1
 IVDW         = 11
 DF pbe
 parameters
 VDW_S6       =    1.0000
 VDW_S8       =    0.7220
 VDW_SR       =    1.2170
 rs18     =    1.0000
 alpha6   =   14.0000
 alpha8   =   16.0000
 k1-k3    =   16.0000    1.3333   -4.0000
 VDW_RADIUS   =   50.2022 A
 VDW_CNRADIUS =   21.1671 A
 Edisp (eV)   -0.45362

 E6    (eV) :    -0.2771
 E8    (eV) :    -0.1765
 % E8        : 38.91

  FORCE on cell =-STRESS in cart. coord.  units (eV):
  Direction    XX          YY          ZZ          XY          YZ          ZX
  Alpha Z    56.57405    56.57405    56.57405
  Ewald    -135.02118  -135.07139  -405.57909    -0.04348     0.00000     0.00000
  Hartree    39.72456    39.71816   -18.03720    -0.00554    -0.00000    -0.00000
  E(xc)     -59.85502   -59.85526   -60.83266    -0.00021    -0.00000    -0.00000
  Local    -129.88293  -129.83518   170.92694     0.04135    -0.00000    -0.00000
  n-local   -14.06009   -13.09782   -14.69459    -0.27996    -0.01090     0.05393
  augment    -1.58685    -1.58677    -1.44614     0.00007     0.00000    -0.00000
  Kinetic   247.07488   240.13898   291.25806     2.01958     0.10379    -0.54463
  Fock        0.00000     0.00000     0.00000     0.00000     0.00000     0.00000
  vdW        -0.11340    -0.11332    -0.00897     0.00007    -0.00000    -0.00000
  Total      -0.13938    -0.13516    18.16039     0.00366     0.00000     0.00000
  in kB      -9.69094    -9.39747  1262.64436     0.25415     0.00000     0.00000

 VOLUME and BASIS-vectors are now :
  energy-cutoff  :      600.00
  volume of cell :       23.04
      direct lattice vectors                 reciprocal lattice vectors
     2.467155442 -0.000111200  0.000000000     0.405335638  0.234045000  0.000000000
    -1.233674023  2.136563688  0.000000000     0.000021096  0.468053460  0.000000000
     0.000000000  0.000000000  4.371732503     0.000000000  0.000000000  0.228742266

  length of vectors
     2.467155445  2.467155445  4.371732503     0.468053460  0.468053460  0.228742266

 FORCES acting on ions
    electron-ion (+dipol)            ewald-force                    non-local-force                 convergence-correction
   -.475E-03 0.262E-03 0.240E-12   -.294E-02 0.168E-02 -.111E-13   -.216E-02 0.125E-02 0.208E-16   -.577E-06 0.333E-06 0.229E-14
   0.464E-03 -.280E-03 0.112E-12   0.293E-02 -.171E-02 0.111E-13   0.216E-02 -.125E-02 0.208E-16   0.577E-06 -.333E-06 -.534E-14
   -.158E-02 0.915E-03 0.212E-12   0.410E-02 -.235E-02 -.111E-13   0.210E-02 -.121E-02 0.000E+00   0.584E-06 -.337E-06 -.552E-16
   0.158E-02 -.908E-03 0.206E-12   -.409E-02 0.238E-02 0.111E-13   -.210E-02 0.121E-02 0.000E+00   -.584E-06 0.337E-06 -.409E-14
   -.704E-05 -.122E-04 0.769E-12   0.768E-15 -.289E-14 0.000E+00   -.555E-16 -.111E-15 0.416E-16   0.387E-10 0.671E-10 -.719E-14

 POSITION                                       TOTAL-FORCE (eV/Angst)
      2.46715     -0.00011      1.09293        -0.005569      0.003215      0.000000
     -1.23367      2.13656      3.27880         0.005569     -0.003215      0.000000
     -0.00019      1.42441      1.09293         0.004622     -0.002668      0.000000
      1.23367      0.71204      3.27880        -0.004622      0.002668      0.000000
    total drift:                               -0.000007     -0.000012      0.000000

  FREE ENERGIE OF THE ION-ELECTRON SYSTEM (eV)
  free  energy   TOTEN  =       -34.44388797 eV

  energy  without entropy=      -34.44388797  energy(sigma->0) =      -34.44388797

 reached required accuracy - stopping structural energy minimisation
 BZINTS: Fermi energy:  9.741066; 16.000000 electrons
         Band energy:   3.990894;  BLOECHL correction: -0.009468