 vasp.5.3.5 31Mar14 (build Nov 02 2014 15:17:37) complex

 executed on        ion-Intel-MKL date 2016.08.24  08:55:27

 INCAR:
 POTCAR:   PAW_PBE C 08Apr2002

 POTCAR:   PAW_PBE C 08Apr2002
   VRHFIN =C: s2p2

   TITEL  = PAW_PBE C 08Apr2002
   POMASS =   12.011; ZVAL   =    4.000    mass and valenz
   ENMAX  =  400.000; ENMIN  =  300.000 eV
   QCUT   =   -5.516; QGAM   =   11.032    optimization parameters

   Description
     l     E      TYP  RCUT    TYP  RCUT
     0   .000     23  1.200
     0   .000     23  1.200
     1   .000     23  1.500
     1  2.500     23  1.500
     2   .000      7  1.500

 PAW_PBE C 08Apr2002                    :

 POSCAR: C
  positions in direct lattice
 exchange correlation table for  LEXCH =        8
   RHO(1)=    0.500       N(1)  =     2000
   RHO(2)=  100.500       N(2)  =     4000

 ion  position               nearest neighbor table
   1  0.500  0.000  0.125-  20 1.42  18 1.42  19 1.42  16 1.68  12 1.68
   2  1.000  0.000  0.125-  19 1.42  20 1.42  17 1.42  15 1.68  11 1.68
   3  0.500  0.500  0.125-  17 1.42  18 1.42  20 1.42  14 1.68  10 1.68
   4  1.000  0.500  0.125-  19 1.42  18 1.42  17 1.43  13 1.68   9 1.68
   5  0.500  0.000  0.625-  24 1.42  22 1.42  23 1.42  16 1.68  12 1.68
   6  1.000  0.000  0.625-  23 1.42  21 1.42  24 1.42  15 1.68  11 1.68
   7  0.500  0.500  0.625-  22 1.42  24 1.42  21 1.42  14 1.68  10 1.68
   8  1.000  0.500  0.625-  21 1.42  23 1.42  22 1.42  13 1.68   9 1.68
   9  0.000  0.500  0.375-  28 1.42  27 1.42  26 1.42   8 1.68   4 1.68
  10  0.500  0.500  0.375-  27 1.42  28 1.42  25 1.42   7 1.68   3 1.68
  11  0.000  1.000  0.375-  26 1.42  25 1.42  28 1.42   6 1.68   2 1.68
  12  0.500  1.000  0.375-  25 1.42  26 1.42  27 1.42   5 1.68   1 1.68
  13  0.000  0.500  0.875-  32 1.42  31 1.42  30 1.42   8 1.68   4 1.68
  14  0.500  0.500  0.875-  31 1.42  32 1.42  29 1.42   7 1.68   3 1.68
  15  0.000  1.000  0.875-  30 1.42  29 1.42  32 1.42   6 1.68   2 1.68
  16  0.500  1.000  0.875-  29 1.42  30 1.42  31 1.42   5 1.68   1 1.68
  17  0.168  0.333  0.126-   3 1.42   2 1.42   4 1.43
  18  0.667  0.333  0.125-   3 1.42   1 1.42   4 1.42
  19  0.167  0.833  0.125-   2 1.42   4 1.42   1 1.42
  20  0.667  0.833  0.125-   1 1.42   3 1.42   2 1.42
  21  0.167  0.333  0.625-   8 1.42   6 1.42   7 1.42
  22  0.667  0.333  0.625-   7 1.42   5 1.42   8 1.42
  23  0.167  0.833  0.625-   6 1.42   8 1.42   5 1.42
  24  0.667  0.833  0.625-   5 1.42   7 1.42   6 1.42
  25  0.333  0.167  0.375-  12 1.42  11 1.42  10 1.42
  26  0.833  0.167  0.375-  11 1.42  12 1.42   9 1.42
  27  0.333  0.667  0.375-  10 1.42   9 1.42  12 1.42
  28  0.833  0.667  0.375-   9 1.42  10 1.42  11 1.42
  29  0.333  0.167  0.875-  16 1.42  15 1.42  14 1.42
  30  0.833  0.167  0.875-  15 1.42  16 1.42  13 1.42
  31  0.333  0.667  0.875-  14 1.42  13 1.42  16 1.42
  32  0.833  0.667  0.875-  13 1.42  14 1.42  15 1.42

  LATTYP: Found a base centered orthorhombic cell.
 ALAT       =     4.9339256766
 B/A-ratio  =     1.7322311103
 C/A-ratio  =     1.3631624696

  Lattice vectors:

 A1 = (   4.9343108848,  -0.0002224000,   0.0000000000)
 A2 = (  -2.4673480464,   4.2731273763,   0.0000000000)
 A3 = (   0.0000000000,   0.0000000000,   6.7257423100)

Analysis of symmetry for initial positions (statically):
 Subroutine PRICEL returns:
 Original cell was already a primitive cell.

 Routine SETGRP: Setting up the symmetry group for a
 base centered orthorhombic supercell.

 Subroutine GETGRP returns: Found  1 space group operations
 (whereof  1 operations were pure point group operations)
 out of a pool of  8 trial point group operations.

The static configuration has the point symmetry C_1 .

Analysis of symmetry for dynamics (positions and initial velocities):
 Subroutine PRICEL returns:
 Original cell was already a primitive cell.

 Routine SETGRP: Setting up the symmetry group for a
 base centered orthorhombic supercell.

 Subroutine GETGRP returns: Found  1 space group operations
 (whereof  1 operations were pure point group operations)
 out of a pool of  8 trial point group operations.

The dynamic configuration has the point symmetry C_1 .

 KPOINTS: B4C B11C-CBC

Automatic generation of k-mesh.
Space group operators:
 irot       det(A)        alpha          n_x          n_y          n_z        tau_x        tau_y        tau_z
    1     1.000000     0.000000     1.000000     0.000000     0.000000     0.000000     0.000000     0.000000

 Subroutine IBZKPT returns following result:

 Found    163 irreducible k-points:

 Following reciprocal coordinates:
            Coordinates               Weight
  0.000000  0.000000  0.000000      1.000000
  0.111111  0.000000  0.000000      2.000000
  0.222222  0.000000  0.000000      2.000000
  0.333333  0.000000  0.000000      2.000000
  0.444444  0.000000  0.000000      2.000000
 -0.000000  0.111111  0.000000      2.000000
  0.111111  0.111111  0.000000      2.000000
  0.222222  0.111111  0.000000      2.000000
  0.333333  0.111111  0.000000      2.000000
  0.444444  0.111111  0.000000      2.000000
 -0.444444  0.111111  0.000000      2.000000
 -0.333333  0.111111  0.000000      2.000000
 -0.222222  0.111111  0.000000      2.000000
 -0.111111  0.111111  0.000000      2.000000
 -0.000000  0.222222  0.000000      2.000000
  0.111111  0.222222  0.000000      2.000000
  0.222222  0.222222  0.000000      2.000000
  0.333333  0.222222  0.000000      2.000000
  0.444444  0.222222  0.000000      2.000000
 -0.444444  0.222222  0.000000      2.000000
 -0.333333  0.222222  0.000000      2.000000
 -0.222222  0.222222  0.000000      2.000000
 -0.111111  0.222222  0.000000      2.000000
 -0.000000  0.333333  0.000000      2.000000
  0.111111  0.333333  0.000000      2.000000
  0.222222  0.333333  0.000000      2.000000
  0.333333  0.333333  0.000000      2.000000
  0.444444  0.333333  0.000000      2.000000
 -0.444444  0.333333  0.000000      2.000000
 -0.333333  0.333333  0.000000      2.000000
 -0.222222  0.333333  0.000000      2.000000
 -0.111111  0.333333  0.000000      2.000000
 -0.000000  0.444444  0.000000      2.000000
  0.111111  0.444444  0.000000      2.000000
  0.222222  0.444444  0.000000      2.000000
  0.333333  0.444444  0.000000      2.000000
  0.444444  0.444444  0.000000      2.000000
 -0.444444  0.444444  0.000000      2.000000
 -0.333333  0.444444  0.000000      2.000000
 -0.222222  0.444444  0.000000      2.000000
 -0.111111  0.444444  0.000000      2.000000
  0.000000  0.000000  0.250000      2.000000
  0.111111  0.000000  0.250000      2.000000
  0.222222  0.000000  0.250000      2.000000
  0.333333  0.000000  0.250000      2.000000
  0.444444  0.000000  0.250000      2.000000
 -0.444444  0.000000  0.250000      2.000000
 -0.333333  0.000000  0.250000      2.000000
 -0.222222  0.000000  0.250000      2.000000
 -0.111111  0.000000  0.250000      2.000000
 -0.000000  0.111111  0.250000      2.000000
  0.111111  0.111111  0.250000      2.000000
  0.222222  0.111111  0.250000      2.000000
  0.333333  0.111111  0.250000      2.000000
  0.444444  0.111111  0.250000      2.000000
 -0.444444  0.111111  0.250000      2.000000
 -0.333333  0.111111  0.250000      2.000000
 -0.222222  0.111111  0.250000      2.000000
 -0.111111  0.111111  0.250000      2.000000
 -0.000000  0.222222  0.250000      2.000000
[...]
  0.333333  0.333333  0.500000      2.000000
  0.444444  0.333333  0.500000      2.000000
 -0.444444  0.333333  0.500000      2.000000
 -0.333333  0.333333  0.500000      2.000000
 -0.222222  0.333333  0.500000      2.000000
 -0.111111  0.333333  0.500000      2.000000
 -0.000000  0.444444  0.500000      2.000000
  0.111111  0.444444  0.500000      2.000000
  0.222222  0.444444  0.500000      2.000000
  0.333333  0.444444  0.500000      2.000000
  0.444444  0.444444  0.500000      2.000000
 -0.444444  0.444444  0.500000      2.000000
 -0.333333  0.444444  0.500000      2.000000
 -0.222222  0.444444  0.500000      2.000000
 -0.111111  0.444444  0.500000      2.000000

 Following cartesian coordinates:
            Coordinates               Weight
  0.000000  0.000000  0.000000      1.000000
  0.022519  0.013002  0.000000      2.000000
  0.045037  0.026005  0.000000      2.000000
  0.067556  0.039007  0.000000      2.000000
  0.090075  0.052010  0.000000      2.000000
  0.000001  0.026003  0.000000      2.000000
  0.022520  0.039005  0.000000      2.000000
  0.045038  0.052008  0.000000      2.000000
  0.067557  0.065010  0.000000      2.000000
  0.090076  0.078013  0.000000      2.000000
 -0.090073 -0.026007  0.000000      2.000000
 -0.067555 -0.013005  0.000000      2.000000
 -0.045036 -0.000002  0.000000      2.000000
 -0.022517  0.013000  0.000000      2.000000
  0.000002  0.052006  0.000000      2.000000
  0.022521  0.065008  0.000000      2.000000
  0.045040  0.078011  0.000000      2.000000
  0.067558  0.091013  0.000000      2.000000
  0.090077  0.104016  0.000000      2.000000
 -0.090072 -0.000004  0.000000      2.000000
 -0.067554  0.012998  0.000000      2.000000
 -0.045035  0.026001  0.000000      2.000000
 -0.022516  0.039003  0.000000      2.000000
  0.000004  0.078009  0.000000      2.000000
  0.022522  0.091011  0.000000      2.000000
  0.045041  0.104014  0.000000      2.000000
  0.067559  0.117016  0.000000      2.000000
  0.090078  0.130019  0.000000      2.000000
 -0.090071  0.025999  0.000000      2.000000
 -0.067552  0.039001  0.000000      2.000000
 -0.045034  0.052004  0.000000      2.000000
 -0.022515  0.065006  0.000000      2.000000
  0.000005  0.104012  0.000000      2.000000
  0.022523  0.117014  0.000000      2.000000
  0.045042  0.130017  0.000000      2.000000
  0.067561  0.143019  0.000000      2.000000
  0.090079  0.156022  0.000000      2.000000
 -0.090070  0.052002  0.000000      2.000000
 -0.067551  0.065004  0.000000      2.000000
 -0.045033  0.078007  0.000000      2.000000
 -0.022514  0.091009  0.000000      2.000000
  0.000000  0.000000  0.037171      2.000000
  0.022519  0.013002  0.037171      2.000000
  0.045037  0.026005  0.037171      2.000000
  0.067556  0.039007  0.037171      2.000000
  0.090075  0.052010  0.037171      2.000000
 -0.090075 -0.052010  0.037171      2.000000
 -0.067556 -0.039007  0.037171      2.000000
 -0.045037 -0.026005  0.037171      2.000000
 -0.022519 -0.013002  0.037171      2.000000
  0.000001  0.026003  0.037171      2.000000
  0.022520  0.039005  0.037171      2.000000
  0.045038  0.052008  0.037171      2.000000
  0.067557  0.065010  0.037171      2.000000
  0.090076  0.078013  0.037171      2.000000
 -0.090073 -0.026007  0.037171      2.000000
 -0.067555 -0.013005  0.037171      2.000000
 -0.045036 -0.000002  0.037171      2.000000
 -0.022517  0.013000  0.037171      2.000000
  0.000002  0.052006  0.037171      2.000000
[...]
  0.067559  0.117016  0.074341      2.000000
  0.090078  0.130019  0.074341      2.000000
 -0.090071  0.025999  0.074341      2.000000
 -0.067552  0.039001  0.074341      2.000000
 -0.045034  0.052004  0.074341      2.000000
 -0.022515  0.065006  0.074341      2.000000
  0.000005  0.104012  0.074341      2.000000
  0.022523  0.117014  0.074341      2.000000
  0.045042  0.130017  0.074341      2.000000
[...]

[...]

 eigenvalue-minimisations  : 17904
 total energy-change (2. order) :-0.8901497E-06  (-0.1144072E-06)
 number of electron     127.9999988 magnetization
 augmentation part        3.1833742 magnetization

 Free energy of the ion-electron system (eV)
  alpha Z        PSCENC =       588.37008405
  Ewald energy   TEWEN  =     -6164.92187178
  -Hartree energ DENC   =      -277.74817734
  -exchange      EXHF   =         0.00000000
  -V(xc)+E(xc)   XCENC  =       493.64838717
  PAW double counting   =      2442.63132510    -2485.33116760
  entropy T*S    EENTRO =         0.00000000
  eigenvalues    EBANDS =       487.23814273
  atomic energy  EATOM  =      4708.80920826
  free energy    TOTEN  =      -207.30406941 eV

  energy without entropy =     -207.30406941  energy(sigma->0) =     -207.30406941

 average (electrostatic) potential at core
  the test charge radii are     0.6991
  (the norm of the test charge is              1.0000)
       1 -42.3138       2 -42.3124       3 -42.3086       4 -42.3141       5 -42.3112
       6 -42.3148       7 -42.3100       8 -42.3168       9 -42.3119      10 -42.3144
      11 -42.3145      12 -42.3077      13 -42.3102      14 -42.3119      15 -42.3119
      16 -42.3164      17 -41.4737      18 -41.4726      19 -41.4712      20 -41.4740
      21 -41.4746      22 -41.4741      23 -41.4728      24 -41.4739      25 -41.4753
      26 -41.4717      27 -41.4728      28 -41.4761      29 -41.4758      30 -41.4745
      31 -41.4745      32 -41.4683

 E-fermi :  15.6122     XC(G=0): -14.7275     alpha+bet :-22.6537

 k-point     1 :       0.0000    0.0000    0.0000
  band No.  band energies     occupation
      1     -11.3286      2.00000
      2      -8.6531      2.00000
      3      -8.6456      2.00000
      4      -5.6749      2.00000
      5      -5.6722      2.00000
      6      -5.6686      2.00000
      7      -4.3212      2.00000
      8      -4.3185      2.00000
      9      -4.3156      2.00000
     10      -3.1632      2.00000
     11      -3.1597      2.00000
     12      -3.1556      2.00000
     13      -3.1544      2.00000
     14      -3.1512      2.00000
     15      -3.1471      2.00000
     16      -1.6732      2.00000
     17      -1.6666      2.00000
     18      -1.6644      2.00000
     19      -1.6638      2.00000
     20      -1.6618      2.00000
     21      -1.6550      2.00000
     22      -0.8001      2.00000
     23      -0.7248      2.00000
     24       3.7355      2.00000
     25       3.7381      2.00000
     26       3.7402      2.00000
     27       3.8979      2.00000
     28       3.9003      2.00000
     29       3.9012      2.00000
     30       4.0735      2.00000
     31       4.0763      2.00000
     32       4.0803      2.00000
     33       4.3783      2.00000
     34       4.3806      2.00000
     35       4.3839      2.00000
     36       6.1047      2.00000
     37       6.1082      2.00000
     38       6.1112      2.00000
     39       6.1119      2.00000
     40       6.1158      2.00000
     41       6.1189      2.00000
     42       8.2895      2.00000
     43       8.2970      2.00000
     44       9.2821      2.00000
     45       9.2855      2.00000
     46       9.2871      2.00000
     47       9.2950      2.00000
     48       9.2984      2.00000
     49       9.3021      2.00000
     50       9.6723      2.00000
     51       9.6784      2.00000
     52       9.6831      2.00000
     53       9.6898      2.00000
     54      10.7916      2.00000
     55      10.7960      2.00000
     56      11.2353      2.00000
     57      11.2436      2.00000
     58      14.4460      2.00000
     59      14.4501      2.00000
     60      14.4508      2.00000
[...]
     70      15.3258      1.05239
     71      15.3316      0.48995
     72      15.3355      0.47255
     73      17.7186      0.00000
     74      17.7193      0.00000
     75      17.7211      0.00000
     76      19.4738      0.00000
     77      19.8807      0.00000
     78      20.1934      0.00000
     79      20.1988      0.00000
     80      20.2634      0.00000
     81      20.2713      0.00000
     82      20.3907      0.00000
     83      20.3984      0.00000
     84      20.4054      0.00000

[...]

 k-point   163 :      -0.1111    0.4444    0.5000
  band No.  band energies     occupation
      1      -9.6386      2.00000
      2      -9.6343      2.00000
      3      -8.2422      2.00000
      4      -8.2379      2.00000
      5      -6.8764      2.00000
      6      -6.8722      2.00000
      7      -4.9548      2.00000
      8      -4.9507      2.00000
      9      -4.3412      2.00000
     10      -4.3353      2.00000
     11      -3.0016      2.00000
     12      -2.9957      2.00000
     13      -1.9650      2.00000
     14      -1.9610      2.00000
     15      -1.7206      2.00000
     16      -1.7146      2.00000
     17      -0.1267      2.00000
     18      -0.1220      2.00000
     19       0.0062      2.00000
     20       0.0121      2.00000
     21       0.6910      2.00000
     22       0.6951      2.00000
     23       1.2047      2.00000
     24       1.2083      2.00000
     25       2.3529      2.00000
     26       2.3565      2.00000
     27       3.0297      2.00000
     28       3.0343      2.00000
     29       4.5478      2.00000
     30       4.5533      2.00000
     31       4.5866      2.00000
     32       4.5896      2.00000
     33       4.8527      2.00000
     34       4.8558      2.00000
     35       5.2782      2.00000
     36       5.2840      2.00000
     37       5.5110      2.00000
     38       5.5160      2.00000
     39       5.6373      2.00000
     40       5.6404      2.00000
     41       6.4230      2.00000
     42       6.4257      2.00000
     43       6.6967      2.00000
     44       6.7023      2.00000
     45       7.4588      2.00000
     46       7.4622      2.00000
     47       8.5356      2.00000
     48       8.5399      2.00000
     49       8.5424      2.00000
     50       8.5451      2.00000
     51       8.7345      2.00000
     52       8.7393      2.00000
     53       9.6357      2.00000
     54       9.6396      2.00000
     55       9.8236      2.00000
     56       9.8275      2.00000
     57      13.3388      2.00000
     58      13.3440      2.00000
     59      14.3036      2.00000
     60      14.3052      2.00000
[...]
     70      16.8812      0.00000
     71      17.0862      0.00000
     72      17.0943      0.00000
     73      17.7923      0.00000
     74      17.7962      0.00000
     75      18.9859      0.00000
     76      18.9905      0.00000
     77      19.3333      0.00000
     78      19.3351      0.00000
     79      20.4812      0.00000
     80      20.4835      0.00000
     81      21.6723      0.00000
     82      21.6778      0.00000
     83      22.9693      0.00000
     84      22.9721      0.00000

 soft charge-density along one line, spin component           1
         0         1         2         3         4         5         6         7         8         9
 total charge-density along one line

------------------------ aborting loop because EDIFF is reached ----------------------------------------

         DFTD3 V3.0 Rev 1
 IVDW         = 11
 DF pbe
 parameters
 VDW_S6       =    1.0000
 VDW_S8       =    0.7220
 VDW_SR       =    1.2170
 rs18     =    1.0000
 alpha6   =   14.0000
 alpha8   =   16.0000
 k1-k3    =   16.0000    1.3333   -4.0000
 VDW_RADIUS   =   50.2022 A
 VDW_CNRADIUS =   21.1671 A
 Edisp (eV)   -4.55854

 E6    (eV) :    -2.7612
 E8    (eV) :    -1.7973
 % E8        : 39.43

  FORCE on cell =-STRESS in cart. coord.  units (eV):
  Direction    XX          YY          ZZ          XY          YZ          ZX
  Alpha Z   588.37008   588.37008   588.37008
  Ewald   -1790.52535 -1790.92584 -2583.49798     0.94858     0.00001    -0.00663
  Hartree   112.98600   112.92629    51.83607     0.14187     0.00059    -0.00118
  E(xc)    -498.27893  -498.28006  -500.53983     0.00246     0.00049    -0.00044
  Local    -304.88972  -304.54406   454.92646    -0.95437     0.02066    -0.01633
  n-local   -97.67692   -97.66033  -139.83932     0.01657     0.02797    -0.03503
  augment   -13.29462   -13.29385   -12.38760    -0.00122    -0.00036     0.00052
  Kinetic  2071.73619  2071.40567  2508.04731    -0.23729    -0.21347     0.23554
  Fock        0.00000     0.00000     0.00000     0.00000     0.00000     0.00000
  vdW        -4.47116    -4.47117    -4.94681    -0.00000     0.00000     0.00001
  Total      63.95557    63.52674   361.96837    -0.08340    -0.16410     0.17645
  in kB     722.58296   717.73790  4089.59154    -0.94229    -1.85409     1.99361

 VOLUME and BASIS-vectors are now :
  energy-cutoff  :      600.00
  volume of cell :      141.81
      direct lattice vectors                 reciprocal lattice vectors
     4.934310885 -0.000222400  0.000000000     0.202667819  0.117022500  0.000000000
    -2.467348046  4.273127376  0.000000000     0.000010548  0.234026730  0.000000000
     0.000000000  0.000000000  6.725742310     0.000000000  0.000000000  0.148682473

  length of vectors
     4.934310890  4.934310890  6.725742310     0.234026730  0.234026730  0.148682473

 FORCES acting on ions
    electron-ion (+dipol)            ewald-force                    non-local-force                 convergence-correction
   -.130E+00 -.103E-02 0.210E+00   0.128E+00 0.129E-02 -.194E+00   0.309E-02 0.562E-02 -.172E-01   0.945E-03 0.524E-03 0.393E-02
   0.403E+00 -.950E-02 0.613E+00   -.402E+00 0.100E-01 -.671E+00   0.353E-01 0.491E-02 0.646E-02   -.936E-03 -.137E-03 0.373E-02
   -.573E+00 -.572E+00 0.614E+00   0.653E+00 0.614E+00 -.677E+00   0.464E-01 0.728E-02 0.950E-02   0.519E-03 0.353E-03 0.393E-02
   -.586E+00 0.569E+00 0.608E+00   0.658E+00 -.607E+00 -.664E+00   0.422E-01 -.416E-02 0.709E-02   -.583E-03 -.690E-03 0.364E-02
   -.149E-01 0.536E-03 -.120E+00   0.841E-02 0.188E-02 0.133E+00   0.346E-02 0.422E-02 -.650E-02   0.180E-03 0.402E-03 -.396E-02
   0.719E-02 0.191E-02 -.167E+00   -.163E-01 0.173E-02 0.175E+00   -.926E-02 0.408E-02 -.282E-01   -.141E-03 -.264E-03 -.376E-02
   -.474E-02 -.404E-02 -.162E+00   -.227E-02 0.101E-01 0.175E+00   -.520E-02 0.111E-02 -.270E-01   0.597E-03 0.261E-04 -.394E-02
   -.341E-02 0.663E-02 -.166E+00   -.252E-02 -.601E-02 0.174E+00   -.515E-02 -.325E-02 -.321E-01   -.538E-03 -.178E-03 -.368E-02
   0.141E+00 -.438E-01 -.381E-01   -.150E+00 0.413E-01 0.248E-01   -.911E-02 -.395E-02 0.329E-01   -.368E-04 -.774E-03 -.104E-02
   -.212E+00 -.157E+00 -.254E+00   0.234E+00 0.177E+00 0.309E+00   0.125E-01 0.136E-01 0.188E-01   0.869E-04 -.248E-03 -.132E-02
   0.582E-01 0.204E+00 -.146E+00   -.758E-01 -.224E+00 0.166E+00   -.137E-01 -.128E-01 0.263E-01   -.442E-03 0.380E-03 -.112E-02
   -.408E-01 0.308E-02 -.379E-01   0.532E-01 -.215E-02 0.293E-01   0.173E-01 -.159E-02 0.117E-01   0.496E-03 0.498E-03 -.116E-02
   -.214E+00 0.161E+00 -.244E+00   0.231E+00 -.178E+00 0.306E+00   0.142E-01 -.203E-01 0.229E-01   -.773E-03 -.101E-02 0.107E-02
   0.146E+00 0.455E-01 -.282E-01   -.150E+00 -.457E-01 0.278E-01   -.122E-01 -.154E-02 0.234E-01   0.717E-03 0.351E-03 0.133E-02
   0.654E-01 -.206E+00 -.136E+00   -.741E-01 0.218E+00 0.167E+00   -.153E-01 0.107E-01 0.237E-01   -.119E-02 -.573E-04 0.115E-02
   -.433E-01 -.151E-02 -.475E-01   0.524E-01 -.217E-02 0.301E-01   0.178E-01 -.429E-02 0.858E-02   0.117E-02 0.798E-03 0.119E-02
   0.153E+01 0.168E-01 0.514E+00   -.167E+01 -.151E-01 -.533E+00   -.834E-01 -.616E-02 -.133E+00   -.344E-03 -.193E-03 0.396E-02
   -.407E+00 0.831E-02 0.277E+00   0.382E+00 -.504E-02 -.234E+00   0.140E-01 -.648E-02 -.341E-01   0.392E-03 -.162E-03 0.377E-02
   -.473E-01 0.207E+00 0.280E+00   0.410E-01 -.202E+00 -.234E+00   0.147E-02 -.855E-02 -.350E-01   -.762E-04 -.509E-04 0.394E-02
   -.491E-01 -.197E+00 0.284E+00   0.410E-01 0.192E+00 -.234E+00   -.875E-03 0.870E-02 -.394E-01   0.291E-04 0.435E-03 0.376E-02
   0.548E-01 0.775E-02 -.276E+00   -.184E-01 -.502E-02 0.239E+00   0.542E-02 -.374E-02 0.271E-01   -.445E-03 -.262E-03 -.397E-02
   -.883E-01 -.712E-04 -.154E+00   0.335E-01 -.502E-02 0.141E+00   0.113E-01 0.110E-02 0.437E-02   0.433E-03 -.166E-03 -.378E-02
   -.753E-02 0.501E-01 -.157E+00   0.917E-02 -.191E-01 0.141E+00   -.283E-02 -.611E-02 0.627E-02   -.858E-04 -.569E-04 -.395E-02
   -.202E-01 -.408E-01 -.158E+00   0.916E-02 0.904E-02 0.141E+00   0.626E-02 0.286E-02 0.762E-02   0.991E-04 0.440E-03 -.376E-02
   -.204E+00 0.181E+00 -.306E+00   0.222E+00 -.174E+00 0.309E+00   -.161E-02 -.477E-02 0.177E-01   0.328E-03 0.124E-03 -.108E-02
   0.142E+00 0.663E-02 -.434E-01   -.162E+00 -.382E-01 0.248E-01   0.318E-02 0.613E-02 0.182E-01   -.394E-03 -.130E-03 -.128E-02
   0.115E+00 -.212E+00 -.175E+00   -.879E-01 0.227E+00 0.166E+00   -.104E-01 -.585E-03 0.176E-01   0.171E-03 0.102E-03 -.116E-02
   -.649E-01 -.731E-02 -.131E-01   0.412E-01 0.525E-02 0.293E-01   0.499E-02 0.421E-02 -.831E-02   -.230E-03 -.266E-03 -.116E-02
   0.149E+00 -.258E-01 -.432E-01   -.162E+00 0.487E-01 0.278E-01   -.166E-02 -.434E-02 0.153E-01   0.364E-03 0.190E-03 0.108E-02
   -.213E+00 -.191E+00 -.300E+00   0.219E+00 0.181E+00 0.306E+00   0.334E-02 0.702E-02 0.136E-01   -.348E-03 0.608E-05 0.129E-02
   0.111E+00 0.206E+00 -.171E+00   -.861E-01 -.215E+00 0.167E+00   -.103E-01 0.263E-02 0.138E-01   0.176E-03 0.213E-03 0.116E-02
   -.613E-01 -.485E-02 -.158E-01   0.404E-01 0.524E-02 0.301E-01   0.666E-02 0.604E-02 -.129E-01   -.125E-03 -.203E-03 0.115E-02
   -.680E-01 0.242E-02 0.405E-01   -.739E-13 -.183E-13 -.105E-12   0.680E-01 -.240E-02 -.404E-01   0.781E-05 -.111E-04 -.119E-04

 POSITION                                       TOTAL-FORCE (eV/Angst)
      2.46715     -0.00011      0.84072         0.001955      0.006409      0.003525
      4.93431     -0.00022      0.84072         0.035070      0.005287     -0.047067
      1.23348      2.13645      0.84072         0.126349      0.049413     -0.050055
      3.70064      2.13634      0.84072         0.113863     -0.042883     -0.045099
      2.46715     -0.00011      4.20359        -0.002792      0.007028      0.001620
      4.93431     -0.00022      4.20359        -0.018546      0.007452     -0.023895
      1.23348      2.13645      4.20359        -0.011609      0.007186     -0.018167
      3.70064      2.13634      4.20359        -0.011609     -0.002814     -0.027660
     -1.23367      2.13656      2.52215        -0.018435     -0.007251      0.018501
      1.23348      2.13645      2.52215         0.034657      0.033873      0.072129
     -2.46735      4.27313      2.52215        -0.031759     -0.031969      0.045194
     -0.00019      4.27302      2.52215         0.030330     -0.000153      0.002062
     -1.23367      2.13656      5.88502         0.030588     -0.037773      0.085773
      1.23348      2.13645      5.88502        -0.015980     -0.001339      0.024366
     -2.46735      4.27313      5.88502        -0.025149      0.022765      0.055744
     -0.00019      4.27302      5.88502         0.028191     -0.007172     -0.007536
      0.00572      1.42441      0.84878        -0.226684     -0.004748     -0.147944
      2.46696      1.42430      0.84072        -0.010207     -0.003381      0.013419
     -1.23387      3.56098      0.84072        -0.004855     -0.004079      0.014975
      1.23329      3.56086      0.84072        -0.009032      0.004620      0.014308
     -0.00019      1.42441      4.20359         0.041427     -0.001270     -0.014068
      2.46696      1.42430      4.20359        -0.043087     -0.004168     -0.011988
     -1.23387      3.56098      4.20359        -0.001272      0.024849     -0.013788
      1.23329      3.56086      4.20359        -0.004664     -0.028487     -0.012630
      1.23367      0.71204      2.52215         0.016774      0.002049      0.019245
      3.70083      0.71193      2.52215        -0.017613     -0.025588     -0.001710
     -0.00000      2.84860      2.52215         0.017344      0.014366      0.008064
      2.46715      2.84849      2.52215        -0.018842      0.001886      0.006838
      1.23367      0.71204      5.88502        -0.014265      0.018815      0.000884
      3.70083      0.71193      5.88502         0.009158     -0.003149      0.020655
     -0.00000      2.84860      5.88502         0.014971     -0.006003      0.011672
      2.46715      2.84849      5.88502        -0.014276      0.006232      0.002635
    total drift:                                0.000031      0.000010      0.000039

  FREE ENERGIE OF THE ION-ELECTRON SYSTEM (eV)
  free  energy   TOTEN  =      -211.86260509 eV

  energy  without entropy=     -211.86260509  energy(sigma->0) =     -211.86260509

 BZINTS: Fermi energy: 15.612177;128.000000 electrons
         Band energy: 487.238143;  BLOECHL correction: -0.239550