 vasp.5.3.5 31Mar14 (build Nov 02 2014 15:17:37) complex

 executed on        ion-Intel-MKL date 2016.08.26  01:29:33

 INCAR:
 POTCAR:   PAW_PBE C 08Apr2002
 POTCAR:   PAW_PBE C 08Apr2002
   VRHFIN =C: s2p2

   TITEL  = PAW_PBE C 08Apr2002
   POMASS =   12.011; ZVAL   =    4.000    mass and valenz
   ENMAX  =  400.000; ENMIN  =  300.000 eV
   QCUT   =   -5.516; QGAM   =   11.032    optimization parameters

   Description
     l     E      TYP  RCUT    TYP  RCUT
     0   .000     23  1.200
     0   .000     23  1.200
     1   .000     23  1.500
     1  2.500     23  1.500
     2   .000      7  1.500

 PAW_PBE C 08Apr2002                    :

 POSCAR: CIF file
  positions in direct lattice
  velocities in cartesian coordinates
 exchange correlation table for  LEXCH =        8
   RHO(1)=    0.500       N(1)  =     2000
   RHO(2)=  100.500       N(2)  =     4000

 ion  position               nearest neighbor table
   1  1.000  0.000  0.250-   3 1.42   3 1.42   3 1.42
   2  0.000  1.000  0.750-   4 1.42   4 1.42   4 1.42
   3  0.333  0.667  0.250-   1 1.42   1 1.42   1 1.42
   4  0.667  0.333  0.750-   2 1.42   2 1.42   2 1.42

  LATTYP: Found a base centered orthorhombic cell.
 ALAT       =     2.4669628383
 B/A-ratio  =     1.7322311103
 C/A-ratio  =     2.7535881895

  Lattice vectors:

 A1 = (   2.4671554424,  -0.0001112000,   0.0000000000)
 A2 = (  -1.2336740232,   2.1365636881,   0.0000000000)
 A3 = (   0.0000000000,   0.0000000000,   6.7929997356)

Analysis of symmetry for initial positions (statically):
 Subroutine PRICEL returns:
 Original cell was already a primitive cell.

 Routine SETGRP: Setting up the symmetry group for a
 base centered orthorhombic supercell.

 Subroutine GETGRP returns: Found  8 space group operations
 (whereof  4 operations were pure point group operations)
 out of a pool of  8 trial point group operations.

The static configuration has the point symmetry C_2h.
 The point group associated with its full space group is D_2h.

Analysis of symmetry for dynamics (positions and initial velocities):
 Subroutine PRICEL returns:
 Original cell was already a primitive cell.

 Routine SETGRP: Setting up the symmetry group for a
 base centered orthorhombic supercell.

 Subroutine GETGRP returns: Found  8 space group operations
 (whereof  4 operations were pure point group operations)
 out of a pool of  8 trial point group operations.

The dynamic configuration has the point symmetry C_2h.
 The point group associated with its full space group is D_2h.

 KPOINTS: B4C B11C-CBC

Automatic generation of k-mesh.
Space group operators:
 irot       det(A)        alpha          n_x          n_y          n_z        tau_x        tau_y        tau_z
    1     1.000000     0.000001     1.000000     0.000000     0.000000     0.000000     0.000000     0.000000
    2    -1.000000     0.000001     1.000000     0.000000     0.000000     0.000000     0.000000     0.000000
    3     1.000000   180.000000    -0.500000    -0.866025     0.000000     0.000000     0.000000     0.000000
    4    -1.000000   180.000000    -0.500000    -0.866025     0.000000     0.000000     0.000000     0.000000
    5     1.000000   180.000000     0.000000     0.000000     1.000000     0.000000     0.000000     0.500000
    6    -1.000000   180.000000     0.000000     0.000000     1.000000     0.000000     0.000000     0.500000
    7     1.000000   179.999999     0.866025    -0.500000     0.000000     0.000000     0.000000     0.500000
    8    -1.000000   179.999999     0.866025    -0.500000     0.000000     0.000000     0.000000     0.500000

 Subroutine IBZKPT returns following result:

 Found    455 irreducible k-points:

 Following reciprocal coordinates:
            Coordinates               Weight
  0.000000  0.000000  0.000000      1.000000
  0.055556 -0.000000  0.000000      4.000000
  0.111111 -0.000000  0.000000      4.000000
  0.166667 -0.000000  0.000000      4.000000
  0.222222  0.000000  0.000000      4.000000
  0.277778 -0.000000  0.000000      4.000000
  0.333333 -0.000000  0.000000      4.000000
  0.388889 -0.000000  0.000000      4.000000
  0.444444  0.000000  0.000000      4.000000
  0.500000  0.000000  0.000000      2.000000
  0.055556  0.055556  0.000000      2.000000
  0.111111  0.055556  0.000000      4.000000
  0.166667  0.055556  0.000000      4.000000
  0.222222  0.055556  0.000000      4.000000
  0.277778  0.055556  0.000000      4.000000
  0.333333  0.055556  0.000000      4.000000
  0.388889  0.055556  0.000000      4.000000
  0.444444  0.055556  0.000000      4.000000
  0.500000  0.055556  0.000000      4.000000
 -0.444444  0.055556  0.000000      4.000000
 -0.388889  0.055556  0.000000      4.000000
 -0.333333  0.055556  0.000000      4.000000
 -0.277778  0.055556  0.000000      4.000000
 -0.222222  0.055556  0.000000      4.000000
 -0.166667  0.055556  0.000000      4.000000
 -0.111111  0.055556  0.000000      4.000000
 -0.055556  0.055556  0.000000      2.000000
  0.111111  0.111111  0.000000      2.000000
  0.166667  0.111111  0.000000      4.000000
  0.222222  0.111111  0.000000      4.000000
  0.277778  0.111111  0.000000      4.000000
  0.333333  0.111111  0.000000      4.000000
  0.388889  0.111111  0.000000      4.000000
  0.444444  0.111111  0.000000      4.000000
  0.500000  0.111111  0.000000      4.000000
 -0.444444  0.111111  0.000000      4.000000
 -0.388889  0.111111  0.000000      4.000000
 -0.333333  0.111111  0.000000      4.000000
 -0.277778  0.111111  0.000000      4.000000
 -0.222222  0.111111  0.000000      4.000000
 -0.166667  0.111111  0.000000      4.000000
 -0.111111  0.111111  0.000000      2.000000
  0.166667  0.166667  0.000000      2.000000
  0.222222  0.166667  0.000000      4.000000
  0.277778  0.166667  0.000000      4.000000
  0.333333  0.166667  0.000000      4.000000
  0.388889  0.166667  0.000000      4.000000
  0.444444  0.166667  0.000000      4.000000
  0.500000  0.166667  0.000000      4.000000
 -0.444444  0.166667  0.000000      4.000000
 -0.388889  0.166667  0.000000      4.000000
 -0.333333  0.166667  0.000000      4.000000
 -0.277778  0.166667  0.000000      4.000000
 -0.222222  0.166667  0.000000      4.000000
 -0.166667  0.166667  0.000000      2.000000
  0.222222  0.222222  0.000000      2.000000
  0.277778  0.222222  0.000000      4.000000
  0.333333  0.222222  0.000000      4.000000
  0.388889  0.222222  0.000000      4.000000
  0.444444  0.222222  0.000000      4.000000
[...]
  0.388889  0.333333  0.500000      4.000000
  0.444444  0.333333  0.500000      4.000000
  0.500000  0.333333  0.500000      4.000000
 -0.444444  0.333333  0.500000      4.000000
 -0.388889  0.333333  0.500000      4.000000
 -0.333333  0.333333  0.500000      2.000000
  0.388889  0.388889  0.500000      2.000000
  0.444444  0.388889  0.500000      4.000000
  0.500000  0.388889  0.500000      4.000000
 -0.444444  0.388889  0.500000      4.000000
 -0.388889  0.388889  0.500000      2.000000
  0.444444  0.444444  0.500000      2.000000
  0.500000  0.444444  0.500000      4.000000
 -0.444444  0.444444  0.500000      2.000000
  0.500000  0.500000  0.500000      1.000000

 Following cartesian coordinates:
            Coordinates               Weight
  0.000000  0.000000  0.000000      1.000000
  0.022519  0.013002  0.000000      4.000000
  0.045037  0.026005  0.000000      4.000000
  0.067556  0.039007  0.000000      4.000000
  0.090075  0.052010  0.000000      4.000000
  0.112593  0.065012  0.000000      4.000000
  0.135112  0.078015  0.000000      4.000000
  0.157631  0.091017  0.000000      4.000000
  0.180149  0.104020  0.000000      4.000000
  0.202668  0.117022  0.000000      2.000000
  0.022520  0.039005  0.000000      2.000000
  0.045038  0.052008  0.000000      4.000000
  0.067557  0.065010  0.000000      4.000000
  0.090076  0.078013  0.000000      4.000000
  0.112594  0.091015  0.000000      4.000000
  0.135113  0.104018  0.000000      4.000000
  0.157632  0.117020  0.000000      4.000000
  0.180150  0.130023  0.000000      4.000000
  0.202669  0.143025  0.000000      4.000000
 -0.180148 -0.078017  0.000000      4.000000
 -0.157629 -0.065015  0.000000      4.000000
 -0.135111 -0.052012  0.000000      4.000000
 -0.112592 -0.039010  0.000000      4.000000
 -0.090073 -0.026007  0.000000      4.000000
 -0.067555 -0.013005  0.000000      4.000000
 -0.045036 -0.000002  0.000000      4.000000
 -0.022517  0.013000  0.000000      2.000000
  0.045040  0.078011  0.000000      2.000000
  0.067558  0.091013  0.000000      4.000000
  0.090077  0.104016  0.000000      4.000000
  0.112596  0.117018  0.000000      4.000000
  0.135114  0.130021  0.000000      4.000000
  0.157633  0.143023  0.000000      4.000000
  0.180152  0.156026  0.000000      4.000000
  0.202670  0.169028  0.000000      4.000000
 -0.180147 -0.052014  0.000000      4.000000
 -0.157628 -0.039012  0.000000      4.000000
 -0.135110 -0.026009  0.000000      4.000000
 -0.112591 -0.013007  0.000000      4.000000
 -0.090072 -0.000004  0.000000      4.000000
 -0.067554  0.012998  0.000000      4.000000
 -0.045035  0.026001  0.000000      2.000000
  0.067559  0.117016  0.000000      2.000000
  0.090078  0.130019  0.000000      4.000000
  0.112597  0.143021  0.000000      4.000000
  0.135115  0.156024  0.000000      4.000000
  0.157634  0.169026  0.000000      4.000000
  0.180153  0.182029  0.000000      4.000000
  0.202671  0.195031  0.000000      4.000000
 -0.180146 -0.026011  0.000000      4.000000
 -0.157627 -0.013009  0.000000      4.000000
 -0.135108 -0.000006  0.000000      4.000000
 -0.112590  0.012996  0.000000      4.000000
 -0.090071  0.025999  0.000000      4.000000
 -0.067552  0.039001  0.000000      2.000000
  0.090079  0.156022  0.000000      2.000000
  0.112598  0.169024  0.000000      4.000000
  0.135117  0.182027  0.000000      4.000000
  0.157635  0.195029  0.000000      4.000000
  0.180154  0.208032  0.000000      4.000000
[...]
  0.157638  0.247035  0.073605      4.000000
  0.180156  0.260038  0.073605      4.000000
  0.202675  0.273040  0.073605      4.000000
 -0.180142  0.051998  0.073605      4.000000
 -0.157623  0.065000  0.073605      4.000000
 -0.135105  0.078003  0.073605      2.000000
  0.157639  0.273038  0.073605      2.000000
  0.180157  0.286041  0.073605      4.000000
  0.202676  0.299043  0.073605      4.000000
 -0.180141  0.078001  0.073605      4.000000
 -0.157622  0.091003  0.073605      2.000000
  0.180159  0.312044  0.073605      2.000000
  0.202677  0.325046  0.073605      4.000000
 -0.180140  0.104004  0.073605      2.000000
  0.202678  0.351049  0.073605      1.000000

 TETIRR: Found   3888 inequivalent tetrahedra from    15552

 I would recommend the setting:
   dimension x,y,z NGX =    20 NGY =   20 NGZ =   54
 SYSTEM =  graphite
 POSCAR =  CIF file

 Startparameter for this run:
   NWRITE =      2    write-flag & timer
   PREC   = accura    normal or accurate (medium, high low for compatibility)
   ISTART =      0    job   : 0-new  1-cont  2-samecut
   ICHARG =      2    charge: 1-file 2-atom 10-const
   ISPIN  =      1    spin polarized calculation?
   LNONCOLLINEAR =      F non collinear calculations
   LSORBIT =      F    spin-orbit coupling
[...]
 k-point 33 :   0.3889 0.1111 0.0000  plane waves:    1203
 k-point 34 :   0.4444 0.1111 0.0000  plane waves:    1201
 k-point 35 :   0.5000 0.1111 0.0000  plane waves:    1201
 k-point 36 :  -0.4444 0.1111 0.0000  plane waves:    1201
 k-point 37 :  -0.3889 0.1111 0.0000  plane waves:    1194
 k-point 38 :  -0.3333 0.1111 0.0000  plane waves:    1191
 k-point 39 :  -0.2778 0.1111 0.0000  plane waves:    1194
 k-point 40 :  -0.2222 0.1111 0.0000  plane waves:    1187
 k-point 41 :  -0.1667 0.1111 0.0000  plane waves:    1184
 k-point 42 :  -0.1111 0.1111 0.0000  plane waves:    1175
 k-point 43 :   0.1667 0.1667 0.0000  plane waves:    1197
 k-point 44 :   0.2222 0.1667 0.0000  plane waves:    1186
 k-point 45 :   0.2778 0.1667 0.0000  plane waves:    1195
 k-point 46 :   0.3333 0.1667 0.0000  plane waves:    1209
 k-point 47 :   0.3889 0.1667 0.0000  plane waves:    1211
 k-point 48 :   0.4444 0.1667 0.0000  plane waves:    1211
 k-point 49 :   0.5000 0.1667 0.0000  plane waves:    1209
 k-point 50 :  -0.4444 0.1667 0.0000  plane waves:    1195
 k-point 51 :  -0.3889 0.1667 0.0000  plane waves:    1186
 k-point 52 :  -0.3333 0.1667 0.0000  plane waves:    1197
 k-point 53 :  -0.2778 0.1667 0.0000  plane waves:    1194
 k-point 54 :  -0.2222 0.1667 0.0000  plane waves:    1203
 k-point 55 :  -0.1667 0.1667 0.0000  plane waves:    1189
 k-point 56 :   0.2222 0.2222 0.0000  plane waves:    1187
 k-point 57 :   0.2778 0.2222 0.0000  plane waves:    1200
 k-point 58 :   0.3333 0.2222 0.0000  plane waves:    1204
 k-point 59 :   0.3889 0.2222 0.0000  plane waves:    1213
 k-point 60 :   0.4444 0.2222 0.0000  plane waves:    1204
[...]
 k-point 85 :   0.5000 0.3889 0.0000  plane waves:    1203
 k-point 86 :  -0.4444 0.3889 0.0000  plane waves:    1194
 k-point 87 :  -0.3889 0.3889 0.0000  plane waves:    1194
 k-point 88 :   0.4444 0.4444 0.0000  plane waves:    1201
 k-point 89 :   0.5000 0.4444 0.0000  plane waves:    1196
 k-point 90 :  -0.4444 0.4444 0.0000  plane waves:    1198
 k-point 91 :   0.5000 0.5000 0.0000  plane waves:    1180
 k-point 92 :   0.0000 0.0000 0.1250  plane waves:    1179
 k-point 93 :   0.0556-0.0000 0.1250  plane waves:    1179
 k-point 94 :   0.1111-0.0000 0.1250  plane waves:    1179
 k-point 95 :   0.1667-0.0000 0.1250  plane waves:    1192
 k-point 96 :   0.2222 0.0000 0.1250  plane waves:    1194
 k-point 97 :   0.2778-0.0000 0.1250  plane waves:    1188
 k-point 98 :   0.3333-0.0000 0.1250  plane waves:    1192
 k-point 99 :   0.3889-0.0000 0.1250  plane waves:    1196
 k-point ** :   0.4444 0.0000 0.1250  plane waves:    1194
 k-point ** :   0.5000 0.0000 0.1250  plane waves:    1190
 k-point ** :   0.0556 0.0556 0.1250  plane waves:    1177
 k-point ** :   0.1111 0.0556 0.1250  plane waves:    1186
 k-point ** :   0.1667 0.0556 0.1250  plane waves:    1193
 k-point ** :   0.2222 0.0556 0.1250  plane waves:    1190
 k-point ** :   0.2778 0.0556 0.1250  plane waves:    1189
 k-point ** :   0.3333 0.0556 0.1250  plane waves:    1196
 k-point ** :   0.3889 0.0556 0.1250  plane waves:    1194
 k-point ** :   0.4444 0.0556 0.1250  plane waves:    1200
 k-point ** :   0.5000 0.0556 0.1250  plane waves:    1200
 k-point ** :  -0.4444 0.0556 0.1250  plane waves:    1194
 k-point ** :  -0.3889 0.0556 0.1250  plane waves:    1195
 k-point ** :  -0.3333 0.0556 0.1250  plane waves:    1189
 k-point ** :  -0.2778 0.0556 0.1250  plane waves:    1190
 k-point ** :  -0.2222 0.0556 0.1250  plane waves:    1193
 k-point ** :  -0.1667 0.0556 0.1250  plane waves:    1186
 k-point ** :  -0.1111 0.0556 0.1250  plane waves:    1177
 k-point ** :  -0.0556 0.0556 0.1250  plane waves:    1179
 k-point ** :   0.1111 0.1111 0.1250  plane waves:    1193
 k-point ** :   0.1667 0.1111 0.1250  plane waves:    1200
 k-point ** :   0.2222 0.1111 0.1250  plane waves:    1189
 k-point ** :   0.2778 0.1111 0.1250  plane waves:    1192
 k-point ** :   0.3333 0.1111 0.1250  plane waves:    1198
 k-point ** :   0.3889 0.1111 0.1250  plane waves:    1202
 k-point ** :   0.4444 0.1111 0.1250  plane waves:    1204
 k-point ** :   0.5000 0.1111 0.1250  plane waves:    1202
 k-point ** :  -0.4444 0.1111 0.1250  plane waves:    1198
 k-point ** :  -0.3889 0.1111 0.1250  plane waves:    1192
 k-point ** :  -0.3333 0.1111 0.1250  plane waves:    1189
 k-point ** :  -0.2778 0.1111 0.1250  plane waves:    1200
 k-point ** :  -0.2222 0.1111 0.1250  plane waves:    1193
 k-point ** :  -0.1667 0.1111 0.1250  plane waves:    1186
 k-point ** :  -0.1111 0.1111 0.1250  plane waves:    1179
 k-point ** :   0.1667 0.1667 0.1250  plane waves:    1191
 k-point ** :   0.2222 0.1667 0.1250  plane waves:    1192
 k-point ** :   0.2778 0.1667 0.1250  plane waves:    1191
 k-point ** :   0.3333 0.1667 0.1250  plane waves:    1203
 k-point ** :   0.3889 0.1667 0.1250  plane waves:    1203
 k-point ** :   0.4444 0.1667 0.1250  plane waves:    1202
 k-point ** :   0.5000 0.1667 0.1250  plane waves:    1203
 k-point ** :  -0.4444 0.1667 0.1250  plane waves:    1191
 k-point ** :  -0.3889 0.1667 0.1250  plane waves:    1192
 k-point ** :  -0.3333 0.1667 0.1250  plane waves:    1192
 k-point ** :  -0.2778 0.1667 0.1250  plane waves:    1200
 k-point ** :  -0.2222 0.1667 0.1250  plane waves:    1193
 k-point ** :  -0.1667 0.1667 0.1250  plane waves:    1193
 k-point ** :   0.2222 0.2222 0.1250  plane waves:    1199
 k-point ** :   0.2778 0.2222 0.1250  plane waves:    1202
 k-point ** :   0.3333 0.2222 0.1250  plane waves:    1209
 k-point ** :   0.3889 0.2222 0.1250  plane waves:    1207
 k-point ** :   0.4444 0.2222 0.1250  plane waves:    1209
 k-point ** :   0.5000 0.2222 0.1250  plane waves:    1202
 k-point ** :  -0.4444 0.2222 0.1250  plane waves:    1199
 k-point ** :  -0.3889 0.2222 0.1250  plane waves:    1192
 k-point ** :  -0.3333 0.2222 0.1250  plane waves:    1189
 k-point ** :  -0.2778 0.2222 0.1250  plane waves:    1190
 k-point ** :  -0.2222 0.2222 0.1250  plane waves:    1194
 k-point ** :   0.2778 0.2778 0.1250  plane waves:    1208
 k-point ** :   0.3333 0.2778 0.1250  plane waves:    1207
[...]
 k-point ** :   0.3889 0.3333 0.5000  plane waves:    1222
 k-point ** :   0.4444 0.3333 0.5000  plane waves:    1210
 k-point ** :   0.5000 0.3333 0.5000  plane waves:    1198
 k-point ** :  -0.4444 0.3333 0.5000  plane waves:    1198
 k-point ** :  -0.3889 0.3333 0.5000  plane waves:    1194
 k-point ** :  -0.3333 0.3333 0.5000  plane waves:    1190
 k-point ** :   0.3889 0.3889 0.5000  plane waves:    1216
 k-point ** :   0.4444 0.3889 0.5000  plane waves:    1204
 k-point ** :   0.5000 0.3889 0.5000  plane waves:    1202
 k-point ** :  -0.4444 0.3889 0.5000  plane waves:    1196
 k-point ** :  -0.3889 0.3889 0.5000  plane waves:    1196
 k-point ** :   0.4444 0.4444 0.5000  plane waves:    1200
 k-point ** :   0.5000 0.4444 0.5000  plane waves:    1196
 k-point ** :  -0.4444 0.4444 0.5000  plane waves:    1196
 k-point ** :   0.5000 0.5000 0.5000  plane waves:    1188

 maximum and minimum number of plane-waves per node :       413      375

 maximum number of plane-waves:      1222
 maximum index in each direction:
   IXMAX=    5   IYMAX=    4   IZMAX=   13
   IXMIN=   -5   IYMIN=   -5   IZMIN=  -14

 WARNING: aliasing errors must be expected set NGX to  22 to avoid them
 NGY is ok and might be reduce to  20
 WARNING: aliasing errors must be expected set NGZ to  56 to avoid them
 aliasing errors are usually negligible using standard VASP settings
 and one can safely disregard these warnings

 parallel 3D FFT for wavefunctions:
    minimum data exchange during FFTs selected (reduces bandwidth)
 parallel 3D FFT for charge:
    minimum data exchange during FFTs selected (reduces bandwidth)

 Broyden mixing: mesh for mixing (old mesh)
   NGX =  9   NGY =  9   NGZ = 27
  (NGX  = 40   NGY  = 40   NGZ  =108)
  gives a total of   2187 points

 initial charge density was supplied:
 charge density of overlapping atoms calculated
 number of electron      16.0000000 magnetization
 keeping initial charge density in first step

 Maximum index for augmentation-charges         1303 (set IRDMAX)

 First call to EWALD:  gamma=   0.538
 Maximum number of real-space cells 4x 4x 2
 Maximum number of reciprocal cells 2x 2x 5

 FEWALD executed in parallel

----------------------------------------- Iteration    1(   1)  ---------------------------------------

 BZINTS: Fermi energy: 13.862196; 16.000000 electrons
         Band energy: -12.956756;  BLOECHL correction: -0.455847

 eigenvalue-minimisations  : 10968
 total energy-change (2. order) : 0.5621954E+02  (-0.8961784E+03)
 number of electron      16.0000000 magnetization
 augmentation part       16.0000000 magnetization

 Free energy of the ion-electron system (eV)
  alpha Z        PSCENC =        36.40903984
  Ewald energy   TEWEN  =      -453.17724369
  -Hartree energ DENC   =      -153.40829924
  -exchange      EXHF   =         0.00000000
  -V(xc)+E(xc)   XCENC  =        55.35356646
  PAW double counting   =       151.32577238     -155.92769107
  entropy T*S    EENTRO =         0.00000000
  eigenvalues    EBANDS =       -12.95675595
  atomic energy  EATOM  =       588.60115103
  free energy    TOTEN  =        56.21953977 eV

  energy without entropy =       56.21953977  energy(sigma->0) =       56.21953977

[...]

 BZINTS: Fermi energy:  3.493048; 16.000000 electrons
         Band energy:-104.162042;  BLOECHL correction: -0.000198

 eigenvalue-minimisations  : 15464
 total energy-change (2. order) :-0.9120529E+02  (-0.8419347E+02)
 number of electron      16.0000000 magnetization
 augmentation part       16.0000000 magnetization

[...]

 BZINTS: Fermi energy:  3.046215; 16.000000 electrons
         Band energy:-108.389126;  BLOECHL correction: -0.000027

[...]

 Broyden mixing:
  rms(total) = 0.77933E+00    rms(broyden)= 0.77924E+00
  rms(prec ) = 0.12446E+01
  weight for this iteration     100.00

[...]

 eigenvalues of (default mixing * dielectric matrix)
  average eigenvalue GAMMA=   2.0348
  2.0348

[...]

 eigenvalue-minimisations  : 13048
 total energy-change (2. order) : 0.5738190E+00  (-0.1864212E+00)
 number of electron      16.0000001 magnetization
 augmentation part        0.3846790 magnetization

[...]

 Broyden mixing:
  rms(total) = 0.17854E-03    rms(broyden)= 0.17841E-03
  rms(prec ) = 0.31160E-03
  weight for this iteration     100.00

 eigenvalues of (default mixing * dielectric matrix)
  average eigenvalue GAMMA=   1.9067
  2.9315  2.3860  2.2101  1.9666  0.9731  0.9731

[...]

----------------------------------------- Iteration    1(  12)  ---------------------------------------

 BZINTS: Fermi energy:  4.558469; 16.000000 electrons
         Band energy: -72.626869;  BLOECHL correction: -0.000049

 eigenvalue-minimisations  :  9352
 total energy-change (2. order) :-0.2270342E-06  (-0.7226265E-07)
 number of electron      16.0000001 magnetization
 augmentation part        0.3830057 magnetization

 Free energy of the ion-electron system (eV)
  alpha Z        PSCENC =        36.40903984
  Ewald energy   TEWEN  =      -453.17724369
  -Hartree energ DENC   =      -188.49810984
  -exchange      EXHF   =         0.00000000
  -V(xc)+E(xc)   XCENC  =        57.61297185
  PAW double counting   =       277.40325614     -282.56691670
  entropy T*S    EENTRO =         0.00000000
  eigenvalues    EBANDS =       -72.62686925
  atomic energy  EATOM  =       588.60115103
  free energy    TOTEN  =       -36.84272062 eV

  energy without entropy =      -36.84272062  energy(sigma->0) =      -36.84272062

 average (electrostatic) potential at core
  the test charge radii are     0.6991
  (the norm of the test charge is              1.0000)
       1 -50.8437       2 -50.8437       3 -50.8190       4 -50.8190

 E-fermi :   4.5585     XC(G=0): -10.2155     alpha+bet :-11.2147

 k-point     1 :       0.0000    0.0000    0.0000
  band No.  band energies     occupation
      1     -15.0465      2.00000
      2     -14.7737      2.00000
      3      -3.8785      2.00000
      4      -2.0321      2.00000
      5       1.5585      2.00000
      6       1.5632      2.00000
      7       1.5748      2.00000
      8       1.5795      2.00000
      9       8.7711      0.00000
     10      12.8837      0.00000
     11      12.8896      0.00000
     12      12.9325      0.00000

[...]

 k-point   455 :       0.5000    0.5000    0.5000
  band No.  band energies     occupation
      1      -9.6755      2.00000
      2      -9.6755      2.00000
      3      -8.6279      2.00000
      4      -8.6279      2.00000
      5      -1.8030      2.00000
      6      -1.8030      2.00000
      7       2.2118      2.00000
      8       2.2118      2.00000
      9       6.2190      0.00000
     10       6.2190      0.00000
     11      11.9528      0.00000
     12      11.9528      0.00000

 soft charge-density along one line, spin component           1
         0         1         2         3         4         5         6         7         8         9
 total charge-density along one line

------------------------ aborting loop because EDIFF is reached ----------------------------------------

         DFTD3 V3.0 Rev 1
 IVDW         = 11
 DF pbe
 parameters
 VDW_S6       =    1.0000
 VDW_S8       =    0.7220
 VDW_SR       =    1.2170
 rs18     =    1.0000
 alpha6   =   14.0000
 alpha8   =   16.0000
 k1-k3    =   16.0000    1.3333   -4.0000
 VDW_RADIUS   =   50.2022 A
 VDW_CNRADIUS =   21.1671 A
 Edisp (eV)   -0.37705

 E6    (eV) :    -0.2379
 E8    (eV) :    -0.1391
 % E8        : 36.90

  FORCE on cell =-STRESS in cart. coord.  units (eV):
  Direction    XX          YY          ZZ          XY          YZ          ZX
  Alpha Z    36.40904    36.40904    36.40904
  Ewald      84.49588    84.44601  -622.11946    -0.04318     0.00000     0.00000
  Hartree   165.92868   165.92199  -143.35001    -0.00579    -0.00000    -0.00000
  E(xc)     -58.42719   -58.42751   -60.58375    -0.00027    -0.00000    -0.00000
  Local    -452.98543  -452.93739   529.25701     0.04161    -0.00000    -0.00000
  n-local   -14.41656   -13.65836   -12.82142    -0.22106     0.00961    -0.00965
  augment    -1.54388    -1.54380    -1.41553     0.00007     0.00000    -0.00000
  Kinetic   243.79639   236.41534   275.23653     2.14491    -0.13160     0.12791
  Fock        0.00000     0.00000     0.00000     0.00000     0.00000     0.00000
  vdW        -0.06891    -0.06883    -0.52195     0.00007     0.00000     0.00000
  Total      -0.12860    -0.12687     0.09045     0.00150    -0.00000     0.00000
  in kB      -5.75432    -5.67703     4.04740     0.06694    -0.00000     0.00000

 VOLUME and BASIS-vectors are now :
  energy-cutoff  :      600.00
  volume of cell :       35.81
      direct lattice vectors                 reciprocal lattice vectors
     2.467155442 -0.000111200  0.000000000     0.405335638  0.234045000  0.000000000
    -1.233674023  2.136563688  0.000000000     0.000021096  0.468053460  0.000000000
     0.000000000  0.000000000  6.792999736     0.000000000  0.000000000  0.147210369

  length of vectors
     2.467155445  2.467155445  6.792999736     0.468053460  0.468053460  0.147210369

 FORCES acting on ions
    electron-ion (+dipol)            ewald-force                    non-local-force                 convergence-correction
   -.405E-03 0.222E-03 0.284E-12   -.266E-02 0.152E-02 -.183E-13   -.215E-02 0.124E-02 -.217E-18   -.274E-06 0.158E-06 0.950E-14
   0.395E-03 -.240E-03 0.214E-12   0.265E-02 -.155E-02 0.183E-13   0.215E-02 -.124E-02 0.217E-18   0.274E-06 -.159E-06 0.742E-14
   -.196E-02 0.114E-02 0.631E-13   0.269E-02 -.154E-02 -.183E-13   0.102E-02 -.589E-03 0.651E-18   -.139E-06 0.808E-07 0.893E-14
   0.197E-02 -.113E-02 -.117E-12   -.267E-02 0.156E-02 0.183E-13   -.102E-02 0.589E-03 -.217E-18   0.139E-06 -.800E-07 0.493E-14
   -.678E-05 -.117E-04 0.444E-12   -.435E-14 -.249E-14 0.000E+00   0.167E-15 0.000E+00 0.434E-18   -.119E-09 -.206E-09 0.308E-13

 POSITION                                       TOTAL-FORCE (eV/Angst)
      2.46715     -0.00011      1.69825        -0.005207      0.003006      0.000000
     -1.23367      2.13656      5.09475         0.005207     -0.003006      0.000000
     -0.00019      1.42441      1.69825         0.001736     -0.001002      0.000000
      1.23367      0.71204      5.09475        -0.001736      0.001002     -0.000000
    total drift:                               -0.000007     -0.000012      0.000000

  FREE ENERGIE OF THE ION-ELECTRON SYSTEM (eV)
  free  energy   TOTEN  =       -37.21977527 eV

  energy  without entropy=      -37.21977527  energy(sigma->0) =      -37.21977527

 reached required accuracy - stopping structural energy minimisation
 BZINTS: Fermi energy:  4.558469; 16.000000 electrons
         Band energy: -72.626869;  BLOECHL correction: -0.000049