 vasp.5.3.5 31Mar14 (build Nov 02 2014 15:17:37) complex

 executed on        ion-Intel-MKL date 2016.08.24  08:01:54

 INCAR:
 POTCAR:   PAW_PBE C 08Apr2002

 POTCAR:   PAW_PBE C 08Apr2002
   VRHFIN =C: s2p2

   TITEL  = PAW_PBE C 08Apr2002
   POMASS =   12.011; ZVAL   =    4.000    mass and valenz
   ENMAX  =  400.000; ENMIN  =  300.000 eV
   QCUT   =   -5.516; QGAM   =   11.032    optimization parameters

   Description
     l     E      TYP  RCUT    TYP  RCUT
     0   .000     23  1.200
     0   .000     23  1.200
     1   .000     23  1.500
     1  2.500     23  1.500
     2   .000      7  1.500

 PAW_PBE C 08Apr2002                    :

 POSCAR: C
  positions in direct lattice
 exchange correlation table for  LEXCH =        8
   RHO(1)=    0.500       N(1)  =     2000
   RHO(2)=  100.500       N(2)  =     4000

 ion  position               nearest neighbor table
   1  0.501  0.000  0.126-  12 1.17  16 1.18  20 1.42  18 1.42  19 1.43  26 1.84  27 1.84  30 1.85
                            25 1.85  31 1.85  29 1.86
   2  1.000  0.000  0.125-  11 1.18  15 1.18  19 1.42  17 1.42  20 1.42  26 1.85  30 1.85  29 1.85
                            25 1.85  28 1.85  32 1.85
   3  0.500  0.500  0.125-  10 1.18  14 1.18  18 1.42  20 1.42  17 1.42  27 1.85  31 1.85  28 1.85
                            32 1.85  25 1.85  29 1.85
   4  1.000  0.500  0.125-   9 1.18  13 1.18  17 1.42  19 1.42  18 1.42  28 1.85  32 1.85  31 1.85
                            27 1.85  26 1.85  30 1.85
   5  0.500  0.000  0.625-  12 1.18  16 1.18  24 1.42  22 1.42  23 1.42  25 1.85  29 1.85  26 1.85
                            30 1.85  27 1.85  31 1.85
   6  1.000  0.000  0.625-  11 1.18  15 1.18  23 1.42  21 1.42  24 1.42  26 1.85  30 1.85  29 1.85
                            25 1.85  28 1.85  32 1.85
   7  0.500  0.500  0.625-  10 1.18  14 1.18  22 1.42  24 1.42  21 1.42  27 1.85  31 1.85  28 1.85
                            32 1.85  25 1.85  29 1.85
   8  1.000  0.500  0.625-   9 1.18  13 1.18  21 1.42  23 1.42  22 1.42  28 1.85  32 1.85  31 1.85
                            27 1.85  26 1.85  30 1.85
   9  0.000  0.500  0.375-   4 1.18   8 1.18  28 1.42  27 1.42  26 1.42  21 1.85  17 1.85  23 1.85
                            19 1.85  18 1.85  22 1.85
  10  0.500  0.500  0.375-   3 1.18   7 1.18  27 1.42  28 1.42  25 1.42  22 1.85  18 1.85  24 1.85
                            20 1.85  21 1.85  17 1.85
  11  0.000  1.000  0.375-   2 1.18   6 1.18  26 1.42  25 1.42  28 1.42  23 1.85  19 1.85  17 1.85
                            21 1.85  24 1.85  20 1.85
  12  0.500  1.000  0.375-   1 1.17   5 1.18  25 1.42  26 1.42  27 1.42  24 1.85  20 1.85  18 1.85
                            22 1.85  19 1.85  23 1.85
  13  0.000  0.500  0.875-   4 1.18   8 1.18  32 1.42  31 1.42  30 1.42  21 1.85  17 1.85  23 1.85
                            19 1.85  18 1.85  22 1.85
  14  0.500  0.500  0.875-   3 1.18   7 1.18  31 1.42  32 1.42  29 1.42  22 1.85  18 1.85  24 1.85
                            20 1.85  21 1.85  17 1.85
  15  0.000  1.000  0.875-   2 1.18   6 1.18  30 1.42  29 1.42  32 1.42  23 1.85  19 1.85  17 1.85
                            21 1.85  24 1.85  20 1.85
  16  0.500  1.000  0.875-   5 1.18   1 1.18  29 1.42  30 1.42  31 1.42  24 1.85  20 1.85  18 1.85
                            22 1.85  19 1.85  23 1.85
  17  0.167  0.333  0.125-   4 1.42   2 1.42   3 1.42  27 1.85  31 1.85  30 1.85  26 1.85   9 1.85
                            13 1.85  11 1.85  15 1.85  14 1.85  10 1.85  25 1.85  29 1.85
  18  0.667  0.333  0.125-   3 1.42   4 1.42   1 1.42  28 1.85  32 1.85  29 1.85  25 1.85  10 1.85
                            14 1.85  12 1.85  16 1.85   9 1.85  13 1.85  30 1.85  26 1.85
  19  0.167  0.833  0.125-   2 1.42   4 1.42   1 1.43  25 1.85  29 1.85  28 1.85  32 1.85  11 1.85
                            15 1.85  13 1.85   9 1.85  12 1.85  16 1.85  31 1.85  27 1.85
  20  0.667  0.833  0.125-   1 1.42   3 1.42   2 1.42  26 1.85  30 1.85  27 1.85  31 1.85  12 1.85
                            16 1.85  14 1.85  10 1.85  15 1.85  11 1.85  28 1.85  32 1.85
  21  0.167  0.333  0.625-   8 1.42   6 1.42   7 1.42  27 1.85  31 1.85  30 1.85  26 1.85   9 1.85
                            13 1.85  11 1.85  15 1.85  14 1.85  10 1.85  25 1.85  29 1.85
  22  0.667  0.333  0.625-   7 1.42   5 1.42   8 1.42  28 1.85  32 1.85  29 1.85  25 1.85  10 1.85
                            14 1.85  12 1.85  16 1.85   9 1.85  13 1.85  30 1.85  26 1.85
  23  0.167  0.833  0.625-   6 1.42   8 1.42   5 1.42  25 1.85  29 1.85  28 1.85  32 1.85  11 1.85
                            15 1.85  13 1.85   9 1.85  12 1.85  16 1.85  31 1.85  27 1.85
  24  0.667  0.833  0.625-   5 1.42   7 1.42   6 1.42  26 1.85  30 1.85  27 1.85  31 1.85  12 1.85
                            16 1.85  14 1.85  10 1.85  15 1.85  11 1.85  28 1.85  32 1.85
  25  0.333  0.167  0.375-  12 1.42  11 1.42  10 1.42  19 1.85  23 1.85  22 1.85  18 1.85   5 1.85
                             6 1.85   2 1.85   7 1.85   3 1.85  17 1.85  21 1.85   1 1.85
  26  0.833  0.167  0.375-  11 1.42  12 1.42   9 1.42   1 1.84  20 1.85  24 1.85  21 1.85  17 1.85
                             6 1.85   2 1.85   5 1.85   8 1.85   4 1.85  22 1.85  18 1.85
  27  0.333  0.667  0.375-  10 1.42   9 1.42  12 1.42   1 1.84  17 1.85  21 1.85  20 1.85  24 1.85
                             7 1.85   3 1.85   8 1.85   4 1.85   5 1.85  23 1.85  19 1.85
  28  0.833  0.667  0.375-   9 1.42  10 1.42  11 1.42  18 1.85  22 1.85  19 1.85  23 1.85   8 1.85
                             4 1.85   3 1.85   7 1.85   6 1.85   2 1.85  20 1.85  24 1.85
  29  0.333  0.167  0.875-  16 1.42  15 1.42  14 1.42  19 1.85  23 1.85  22 1.85  18 1.85   5 1.85
                             6 1.85   2 1.85   7 1.85   3 1.85  17 1.85  21 1.85   1 1.86
  30  0.833  0.167  0.875-  15 1.42  16 1.42  13 1.42   1 1.85  20 1.85  24 1.85  21 1.85  17 1.85
                             6 1.85   2 1.85   5 1.85   8 1.85   4 1.85  22 1.85  18 1.85
  31  0.333  0.667  0.875-  14 1.42  13 1.42  16 1.42  17 1.85  21 1.85  20 1.85  24 1.85   7 1.85
                             3 1.85   8 1.85   4 1.85   5 1.85  23 1.85  19 1.85   1 1.85
  32  0.833  0.667  0.875-  13 1.42  14 1.42  15 1.42  18 1.85  22 1.85  19 1.85  23 1.85   8 1.85
                             4 1.85   3 1.85   7 1.85   6 1.85   2 1.85  20 1.85  24 1.85

  LATTYP: Found a base centered orthorhombic cell.
 ALAT       =     4.9339256766
 B/A-ratio  =     1.7322311103
 C/A-ratio  =     0.9542137281

  Lattice vectors:

 A1 = (   4.9343108848,  -0.0002224000,   0.0000000000)
 A2 = (  -2.4673480464,   4.2731273763,   0.0000000000)
 A3 = (   0.0000000000,   0.0000000000,   4.7080196140)

Analysis of symmetry for initial positions (statically):
 Subroutine PRICEL returns:
 Original cell was already a primitive cell.

 Routine SETGRP: Setting up the symmetry group for a
 base centered orthorhombic supercell.

 Subroutine GETGRP returns: Found  1 space group operations
 (whereof  1 operations were pure point group operations)
 out of a pool of  8 trial point group operations.

The static configuration has the point symmetry C_1 .

Analysis of symmetry for dynamics (positions and initial velocities):
 Subroutine PRICEL returns:
 Original cell was already a primitive cell.

 Routine SETGRP: Setting up the symmetry group for a
 base centered orthorhombic supercell.

 Subroutine GETGRP returns: Found  1 space group operations
 (whereof  1 operations were pure point group operations)
 out of a pool of  8 trial point group operations.

The dynamic configuration has the point symmetry C_1 .

 KPOINTS: B4C B11C-CBC

Automatic generation of k-mesh.
Space group operators:
 irot       det(A)        alpha          n_x          n_y          n_z        tau_x        tau_y        tau_z
    1     1.000000     0.000001     1.000000     0.000000     0.000000     0.000000     0.000000     0.000000

 Subroutine IBZKPT returns following result:

 Found    163 irreducible k-points:

 Following reciprocal coordinates:
            Coordinates               Weight
  0.000000  0.000000  0.000000      1.000000
  0.111111  0.000000  0.000000      2.000000
  0.222222  0.000000  0.000000      2.000000
  0.333333  0.000000  0.000000      2.000000
  0.444444  0.000000  0.000000      2.000000
  0.000000  0.111111  0.000000      2.000000
  0.111111  0.111111  0.000000      2.000000
  0.222222  0.111111  0.000000      2.000000
  0.333333  0.111111  0.000000      2.000000
  0.444444  0.111111  0.000000      2.000000
 -0.444444  0.111111  0.000000      2.000000
 -0.333333  0.111111  0.000000      2.000000
 -0.222222  0.111111  0.000000      2.000000
 -0.111111  0.111111  0.000000      2.000000
 -0.000000  0.222222  0.000000      2.000000
  0.111111  0.222222  0.000000      2.000000
  0.222222  0.222222  0.000000      2.000000
  0.333333  0.222222  0.000000      2.000000
  0.444444  0.222222  0.000000      2.000000
 -0.444444  0.222222  0.000000      2.000000
 -0.333333  0.222222  0.000000      2.000000
 -0.222222  0.222222  0.000000      2.000000
 -0.111111  0.222222  0.000000      2.000000
 -0.000000  0.333333  0.000000      2.000000
  0.111111  0.333333  0.000000      2.000000
  0.222222  0.333333  0.000000      2.000000
  0.333333  0.333333  0.000000      2.000000
  0.444444  0.333333  0.000000      2.000000
 -0.444444  0.333333  0.000000      2.000000
 -0.333333  0.333333  0.000000      2.000000
 -0.222222  0.333333  0.000000      2.000000
 -0.111111  0.333333  0.000000      2.000000
 -0.000000  0.444444  0.000000      2.000000
  0.111111  0.444444  0.000000      2.000000
  0.222222  0.444444  0.000000      2.000000
  0.333333  0.444444  0.000000      2.000000
  0.444444  0.444444  0.000000      2.000000
 -0.444444  0.444444  0.000000      2.000000
 -0.333333  0.444444  0.000000      2.000000
 -0.222222  0.444444  0.000000      2.000000
 -0.111111  0.444444  0.000000      2.000000
  0.000000  0.000000  0.250000      2.000000
  0.111111  0.000000  0.250000      2.000000
  0.222222  0.000000  0.250000      2.000000
  0.333333  0.000000  0.250000      2.000000
  0.444444  0.000000  0.250000      2.000000
 -0.444444 -0.000000  0.250000      2.000000
 -0.333333 -0.000000  0.250000      2.000000
 -0.222222 -0.000000  0.250000      2.000000
 -0.111111 -0.000000  0.250000      2.000000
  0.000000  0.111111  0.250000      2.000000
  0.111111  0.111111  0.250000      2.000000
  0.222222  0.111111  0.250000      2.000000
  0.333333  0.111111  0.250000      2.000000
  0.444444  0.111111  0.250000      2.000000
 -0.444444  0.111111  0.250000      2.000000
 -0.333333  0.111111  0.250000      2.000000
 -0.222222  0.111111  0.250000      2.000000
 -0.111111  0.111111  0.250000      2.000000
 -0.000000  0.222222  0.250000      2.000000
[...]
  0.333333  0.333333  0.500000      2.000000
  0.444444  0.333333  0.500000      2.000000
 -0.444444  0.333333  0.500000      2.000000
 -0.333333  0.333333  0.500000      2.000000
 -0.222222  0.333333  0.500000      2.000000
 -0.111111  0.333333  0.500000      2.000000
 -0.000000  0.444444  0.500000      2.000000
  0.111111  0.444444  0.500000      2.000000
  0.222222  0.444444  0.500000      2.000000
[...]

[...]

 eigenvalue-minimisations  : 18744
 total energy-change (2. order) :-0.1829358E-07  (-0.1151432E-06)
 number of electron     127.9999984 magnetization
 augmentation part        3.4458602 magnetization

 Free energy of the ion-electron system (eV)
  alpha Z        PSCENC =       840.52869203
  Ewald energy   TEWEN  =     -6958.56306873
  -Hartree energ DENC   =      -204.06290975
  -exchange      EXHF   =         0.00000000
  -V(xc)+E(xc)   XCENC  =       539.00759485
  PAW double counting   =      3258.25185068    -3304.75789413
  entropy T*S    EENTRO =         0.00000000
  eigenvalues    EBANDS =      1097.43949726
  atomic energy  EATOM  =      4708.80920826
  free energy    TOTEN  =       -23.34702953 eV

  energy without entropy =      -23.34702953  energy(sigma->0) =      -23.34702953

 average (electrostatic) potential at core
  the test charge radii are     0.6991
  (the norm of the test charge is              1.0000)
       1 -37.3731       2 -37.3676       3 -37.3682       4 -37.3676       5 -37.3731
       6 -37.3675       7 -37.3697       8 -37.3658       9 -37.3670      10 -37.3662
      11 -37.3665      12 -37.3897      13 -37.3678      14 -37.3674      15 -37.3674
      16 -37.3556      17 -35.6806      18 -35.6798      19 -35.6829      20 -35.6746
      21 -35.6802      22 -35.6795      23 -35.6809      24 -35.6771      25 -35.6848
      26 -35.7017      27 -35.6939      28 -35.6856      29 -35.6558      30 -35.6718
      31 -35.6647      32 -35.6739

 E-fermi :  22.3803     XC(G=0): -16.8355     alpha+bet :-32.3624

 k-point     1 :       0.0000    0.0000    0.0000
  band No.  band energies     occupation
      1     -11.0047      2.00000
      2      -6.1238      2.00000
      3      -6.1168      2.00000
      4      -5.6713      2.00000
      5      -5.6692      2.00000
      6      -5.6691      2.00000
      7      -3.9464      2.00000
      8      -3.9443      2.00000
      9      -3.9422      2.00000
     10      -1.3903      2.00000
     11      -1.3748      2.00000
     12      -1.3738      2.00000
     13      -1.3720      2.00000
     14      -1.3715      2.00000
     15      -1.3605      2.00000
     16       1.9448      2.00000
     17       1.9468      2.00000
     18       1.9531      2.00000
     19       1.9557      2.00000
     20       1.9625      2.00000
     21       1.9630      2.00000
     22       3.0877      2.00000
     23       3.9206      2.00000
     24       3.9225      2.00000
     25       3.9263      2.00000
     26       5.8161      2.00000
     27       5.8192      2.00000
     28       5.8197      2.00000
     29       8.6261      2.00000
     30       8.6353      2.00000
     31       9.9387      2.00000
     32       9.9446      2.00000
     33       9.9541      2.00000
     34       9.9554      2.00000
     35       9.9623      2.00000
     36       9.9683      2.00000
     37      13.6930      2.00000
     38      13.7078      2.00000
     39      13.7141      2.00000
     40      13.7281      2.00000
     41      14.1881      2.00000
     42      14.1929      2.00000
     43      14.1969      2.00000
     44      14.6114      2.00000
     45      14.6182      2.00000
     46      16.2523      2.00000
     47      17.3773      2.00000
     48      17.3810      2.00000
     49      17.3841      2.00000
     50      17.5451      2.00000
     51      17.5523      2.00000
     52      17.5546      2.00000
     53      17.5559      2.00000
     54      17.5576      2.00000
     55      17.5638      2.00000
     56      19.7819      2.00000
     57      19.7851      2.00000
     58      19.7867      2.00000
     59      20.0878      2.00000
     60      20.0974      2.00000
[...]
     70      23.9190      0.00000
     71      23.9214      0.00000
     72      23.9366      0.00000
     73      24.9025      0.00000
     74      24.9053      0.00000
     75      24.9104      0.00000
     76      26.4822      0.00000
     77      26.4856      0.00000
     78      27.5473      0.00000
     79      29.4080      0.00000
     80      29.4362      0.00000
     81      29.4370      0.00000
     82      29.4381      0.00000
     83      29.4395      0.00000
     84      29.4648      0.00000

[...]

 k-point   163 :      -0.1111    0.4444    0.5000
  band No.  band energies     occupation
      1      -8.7748      2.00000
      2      -8.7612      2.00000
      3      -7.4276      2.00000
      4      -7.4138      2.00000
      5      -6.1196      2.00000
      6      -6.1055      2.00000
      7      -4.3544      2.00000
      8      -4.3399      2.00000
      9      -0.9793      2.00000
     10      -0.9639      2.00000
     11       0.1860      2.00000
     12       0.1929      2.00000
     13       0.7126      2.00000
     14       0.7284      2.00000
     15       1.2738      2.00000
     16       1.2791      2.00000
     17       1.7126      2.00000
     18       1.7285      2.00000
     19       2.1978      2.00000
     20       2.2121      2.00000
     21       2.3453      2.00000
     22       2.3525      2.00000
     23       3.4036      2.00000
     24       3.4112      2.00000
     25       3.5342      2.00000
     26       3.5499      2.00000
     27       5.6158      2.00000
     28       5.6334      2.00000
     29       6.0872      2.00000
     30       6.1052      2.00000
     31       7.4799      2.00000
     32       7.4984      2.00000
     33      10.0591      2.00000
     34      10.0690      2.00000
     35      10.9521      2.00000
     36      10.9632      2.00000
     37      12.0165      2.00000
     38      12.0272      2.00000
     39      12.8720      2.00000
     40      12.8811      2.00000
     41      14.3763      2.00000
     42      14.3838      2.00000
     43      14.4934      2.00000
     44      14.5018      2.00000
     45      16.3583      2.00000
     46      16.3710      2.00000
     47      16.7468      2.00000
     48      16.7557      2.00000
     49      16.8384      2.00000
     50      16.8509      2.00000
     51      17.5809      2.00000
     52      17.5890      2.00000
     53      18.9622      2.00000
     54      18.9733      2.00000
     55      20.5874      2.00000
     56      20.5989      2.00000
     57      20.7464      2.00000
     58      20.7666      2.00000
     59      21.0249      2.00000
     60      21.0396      2.00000
[...]
     70      24.1552      0.00000
     71      24.4005      0.00000
     72      24.4054      0.00000
     73      26.2446      0.00000
     74      26.2545      0.00000
     75      27.0772      0.00000
     76      27.0845      0.00000
     77      27.3920      0.00000
     78      27.4012      0.00000
     79      27.7829      0.00000
     80      27.7880      0.00000
     81      27.8396      0.00000
     82      27.8526      0.00000
     83      28.5683      0.00000
     84      28.5812      0.00000

 soft charge-density along one line, spin component           1
         0         1         2         3         4         5         6         7         8         9
 total charge-density along one line

------------------------ aborting loop because EDIFF is reached ----------------------------------------

         DFTD3 V3.0 Rev 1
 IVDW         = 11
 DF pbe
 parameters
 VDW_S6       =    1.0000
 VDW_S8       =    0.7220
 VDW_SR       =    1.2170
 rs18     =    1.0000
 alpha6   =   14.0000
 alpha8   =   16.0000
 k1-k3    =   16.0000    1.3333   -4.0000
 VDW_RADIUS   =   50.2022 A
 VDW_CNRADIUS =   21.1671 A
 Edisp (eV)   -6.50340

 E6    (eV) :    -3.8887
 E8    (eV) :    -2.6147
 % E8        : 40.20

  FORCE on cell =-STRESS in cart. coord.  units (eV):
  Direction    XX          YY          ZZ          XY          YZ          ZX
  Alpha Z   840.52869   840.52869   840.52869
  Ewald   -2551.86023 -2552.27071 -1854.46018    -1.28602     0.00019    -0.03556
  Hartree    37.30163    37.23233   129.53842    -0.13909    -0.00073    -0.00443
  E(xc)    -541.44957  -541.45003  -541.17097    -0.00134    -0.00008     0.00005
  Local     193.33220   193.74650  -330.29151     1.21271    -0.00063     0.04060
  n-local   -98.80855   -98.80985  -117.10868    -0.00728    -0.00517     0.01181
  augment   -15.03524   -15.03460   -19.97763     0.00219     0.00006     0.00021
  Kinetic  2504.49173  2504.51902  2677.10179     0.06628     0.02484    -0.05106
  Fock        0.00000     0.00000     0.00000     0.00000     0.00000     0.00000
  vdW        -6.30318    -6.30332    -6.84743    -0.00040    -0.00000     0.00001
  Total     362.19750   362.15802   777.31251    -0.15295     0.01847    -0.03837
  in kB    5845.97187  5845.33460 12546.04764    -2.46859     0.29813    -0.61927

 VOLUME and BASIS-vectors are now :
  energy-cutoff  :      600.00
  volume of cell :       99.27
      direct lattice vectors                 reciprocal lattice vectors
     4.934310885 -0.000222400  0.000000000     0.202667819  0.117022500  0.000000000
    -2.467348046  4.273127376  0.000000000     0.000010548  0.234026730  0.000000000
     0.000000000  0.000000000  4.708019614     0.000000000  0.000000000  0.212403533

  length of vectors
     4.934310890  4.934310890  4.708019614     0.234026730  0.234026730  0.212403533

 FORCES acting on ions
    electron-ion (+dipol)            ewald-force                    non-local-force                 convergence-correction
   0.825E+00 -.127E-01 0.329E+01   -.905E+00 0.140E-01 -.452E+01   0.267E+00 0.416E-02 0.121E+00   -.202E-04 0.194E-05 -.140E-02
   -.470E+00 -.853E-02 0.196E+00   0.458E+00 0.207E-02 -.142E+00   -.107E-01 -.697E-02 0.557E-01   0.881E-05 0.825E-04 -.131E-02
   -.515E-01 0.239E+00 0.200E+00   0.359E-01 -.241E+00 -.142E+00   0.156E-01 0.164E-01 0.517E-01   -.859E-04 -.766E-04 -.158E-02
   -.572E-01 -.242E+00 0.193E+00   0.358E-01 0.246E+00 -.142E+00   0.574E-02 -.865E-02 0.484E-01   0.675E-04 -.355E-04 -.131E-02
   0.183E+00 -.295E-02 -.374E+00   -.172E+00 0.211E-02 0.523E+00   0.949E-02 -.154E-03 -.371E+00   0.204E-03 0.843E-06 0.132E-02
   -.108E+00 -.702E-02 -.109E+00   0.120E+00 0.208E-02 0.117E+00   -.171E-01 -.569E-02 -.579E-01   -.177E-03 -.276E-04 0.128E-02
   -.142E-02 0.607E-01 -.108E+00   0.988E-03 -.669E-01 0.117E+00   0.516E-02 0.118E-01 -.552E-01   0.822E-05 0.105E-03 0.154E-02
   -.540E-02 -.615E-01 -.111E+00   0.949E-03 0.711E-01 0.117E+00   -.165E-02 -.100E-01 -.502E-01   -.934E-05 -.811E-04 0.128E-02
   -.317E-01 -.122E+00 -.327E-01   0.212E-01 0.140E+00 0.123E-01   0.850E-02 -.177E-01 -.142E-01   -.919E-04 0.646E-04 0.183E-03
   -.285E-01 0.129E+00 -.586E-01   0.213E-01 -.144E+00 0.123E-01   -.918E-02 0.886E-02 -.195E-01   0.688E-04 0.860E-04 0.482E-03
   -.247E+00 -.302E-03 -.460E-01   0.267E+00 -.214E-02 0.130E-01   -.226E-01 0.158E-01 -.105E-01   -.501E-04 -.133E-03 0.334E-03
   0.813E+00 0.542E-02 -.150E+01   -.984E+00 -.208E-02 0.206E+01   -.355E-01 0.930E-03 0.189E+00   0.377E-04 -.145E-04 0.612E-03
   -.166E-01 -.129E+00 -.522E-01   0.209E-01 0.138E+00 0.133E-01   -.136E-01 -.636E-02 -.134E-01   0.337E-04 0.714E-04 -.152E-03
   -.392E-01 0.123E+00 -.368E-01   0.209E-01 -.142E+00 0.133E-01   0.660E-02 0.174E-01 -.332E-02   -.500E-04 -.749E-04 -.443E-03
   -.245E+00 0.139E-01 -.440E-01   0.264E+00 -.214E-02 0.126E-01   -.236E-01 -.665E-02 -.152E-01   0.104E-03 0.884E-05 -.304E-03
   0.793E+00 0.426E-02 -.151E+01   -.949E+00 -.208E-02 0.204E+01   -.375E-01 0.605E-03 0.176E+00   -.983E-04 -.160E-04 -.529E-03
   -.164E+00 0.503E-02 0.139E+00   0.188E+00 -.138E-01 -.109E+00   -.303E-01 0.666E-02 -.676E-03   0.302E-02 0.117E-02 -.120E-02
   0.433E+00 0.265E-01 0.503E+00   -.464E+00 -.235E-01 -.512E+00   0.370E-01 -.480E-02 0.169E-01   -.295E-02 0.457E-03 -.113E-02
   -.704E+00 -.634E+00 0.500E+00   0.832E+00 0.729E+00 -.505E+00   -.501E-01 -.520E-01 0.155E-01   0.635E-03 0.911E-03 -.994E-03
   -.673E+00 0.660E+00 0.502E+00   0.831E+00 -.767E+00 -.520E+00   -.667E-01 0.584E-01 0.246E-01   -.560E-03 -.252E-02 -.107E-02
   -.618E-01 0.118E-01 -.981E-01   0.808E-01 -.146E-01 0.963E-01   -.208E-01 0.352E-03 -.558E-02   0.315E-02 0.113E-02 0.119E-02
   0.563E-01 0.258E-01 -.192E+00   -.453E-01 -.145E-01 0.226E+00   -.448E-02 -.140E-01 -.755E-01   -.310E-02 0.167E-03 0.114E-02
   -.582E-01 -.526E-01 -.190E+00   0.421E-01 0.352E-01 0.224E+00   0.917E-02 0.803E-02 -.758E-01   0.829E-03 0.114E-02 0.101E-02
   -.287E-01 0.619E-01 -.196E+00   0.423E-01 -.658E-01 0.227E+00   -.173E-01 0.768E-02 -.723E-01   -.812E-03 -.244E-02 0.109E-02
   0.505E-01 0.685E-01 0.125E+00   -.153E+00 -.250E-01 -.177E+00   0.808E-01 -.379E-01 0.107E-01   0.705E-03 0.237E-02 0.487E-03
   -.265E+00 -.279E+00 -.361E+00   0.422E+00 0.390E+00 0.430E+00   -.870E-01 -.600E-01 -.353E-02   -.732E-03 -.110E-02 0.470E-03
   0.194E+00 0.169E+00 -.117E+00   -.225E+00 -.317E+00 0.124E+00   0.154E-01 0.922E-01 0.508E-02   0.297E-02 -.215E-03 0.510E-03
   -.606E-01 -.967E-02 -.166E-01   0.769E-01 0.143E-01 0.620E-02   0.137E-01 -.174E-02 -.159E-01   -.298E-02 -.102E-02 0.391E-03
   -.288E+00 0.261E+00 -.351E+00   0.417E+00 -.352E+00 0.425E+00   -.636E-01 0.445E-01 -.147E-02   0.669E-03 0.266E-02 -.491E-03
   0.836E-01 -.826E-01 0.118E+00   -.158E+00 0.528E-01 -.173E+00   0.536E-01 0.270E-01 0.180E-01   -.744E-03 -.106E-02 -.483E-03
   0.197E+00 -.221E+00 -.121E+00   -.221E+00 0.347E+00 0.128E+00   0.994E-02 -.767E-01 0.112E-01   0.317E-02 -.425E-03 -.517E-03
   -.606E-01 -.458E-02 -.282E-01   0.759E-01 0.143E-01 0.667E-02   0.104E-01 -.558E-02 0.218E-02   -.322E-02 -.122E-02 -.378E-03
   -.366E-01 -.566E-02 0.115E+00   0.241E-13 0.242E-13 -.412E-13   0.366E-01 0.569E-02 -.115E+00   -.979E-05 -.238E-04 0.131E-04

 POSITION                                       TOTAL-FORCE (eV/Angst)
      2.47439     -0.00011      0.59541         0.187794      0.005540     -1.107916
      4.93431     -0.00022      0.58850        -0.022979     -0.013357      0.108414
      1.23348      2.13645      0.58850        -0.000101      0.013597      0.108081
      3.70064      2.13634      0.58850        -0.015578     -0.005121      0.097650
      2.46715     -0.00011      2.94251         0.020554     -0.001002     -0.220563
      4.93431     -0.00022      2.94251        -0.005005     -0.010656     -0.049270
      1.23348      2.13645      2.94251         0.004765      0.005695     -0.044846
      3.70064      2.13634      2.94251        -0.006092     -0.000523     -0.043354
     -1.23367      2.13656      1.76551        -0.002109     -0.000441     -0.034447
      1.23348      2.13645      1.76551        -0.016369     -0.006401     -0.065345
     -2.46735      4.27313      1.76551        -0.002754      0.013239     -0.043148
     -0.00019      4.27302      1.76551        -0.206812      0.004255      0.744399
     -1.23367      2.13656      4.11952        -0.009279      0.002852     -0.052448
      1.23348      2.13645      4.11952        -0.011719     -0.002141     -0.027301
     -2.46735      4.27313      4.11952        -0.004880      0.005086     -0.047015
     -0.00019      4.27302      4.11952        -0.193053      0.002779      0.710956
     -0.00019      1.42441      0.58850        -0.002575     -0.000959      0.027966
      2.46696      1.42430      0.58850         0.002965     -0.001366      0.006525
     -1.23387      3.56098      0.58850         0.079055      0.044024      0.008984
      1.23329      3.56086      0.58850         0.090890     -0.051311      0.005894
     -0.00019      1.42441      2.94251         0.001348     -0.001242     -0.006200
      2.46696      1.42430      2.94251         0.003464     -0.002451     -0.040544
     -1.23387      3.56098      2.94251        -0.006080     -0.008199     -0.040569
      1.23329      3.56086      2.94251        -0.004587      0.001334     -0.040807
      1.23367      0.71204      1.76551        -0.021417      0.007911     -0.040746
      3.70083      0.71193      1.76551         0.070020      0.049959      0.066366
     -0.00000      2.84860      1.76551        -0.012275     -0.056589      0.012663
      2.46715      2.84849      1.76551         0.027128      0.001903     -0.025918
      1.23367      0.71204      4.11952         0.066449     -0.044266      0.071914
      3.70083      0.71193      4.11952        -0.021454     -0.003885     -0.037718
     -0.00000      2.84860      4.11952        -0.011885      0.048810      0.018103
      2.46715      2.84849      4.11952         0.022569      0.002925     -0.019760
    total drift:                                0.000019      0.000003      0.000200

  FREE ENERGIE OF THE ION-ELECTRON SYSTEM (eV)
  free  energy   TOTEN  =       -29.85042670 eV

  energy  without entropy=      -29.85042670  energy(sigma->0) =      -29.85042670

 BZINTS: Fermi energy: 22.380285;128.000000 electrons
         Band energy:1097.439497;  BLOECHL correction: -0.283304