 vasp.5.3.5 31Mar14 (build Nov 02 2014 15:17:37) complex

 executed on        ion-Intel-MKL date 2016.08.24  08:34:13

 INCAR:
 POTCAR:   PAW_PBE C 08Apr2002

 POTCAR:   PAW_PBE C 08Apr2002
   VRHFIN =C: s2p2

   TITEL  = PAW_PBE C 08Apr2002
   POMASS =   12.011; ZVAL   =    4.000    mass and valenz
   ENMAX  =  400.000; ENMIN  =  300.000 eV
   QCUT   =   -5.516; QGAM   =   11.032    optimization parameters

   Description
     l     E      TYP  RCUT    TYP  RCUT
     0   .000     23  1.200
     0   .000     23  1.200
     1   .000     23  1.500
     1  2.500     23  1.500
     2   .000      7  1.500

 PAW_PBE C 08Apr2002                    :

 POSCAR: C
  positions in direct lattice
 exchange correlation table for  LEXCH =        8
   RHO(1)=    0.500       N(1)  =     2000
   RHO(2)=  100.500       N(2)  =     4000

 ion  position               nearest neighbor table
   1  0.499  0.000  0.124-  16 1.34  12 1.35  19 1.42  18 1.42  20 1.43  29 1.95  31 1.95  30 1.96
                            25 1.96  27 1.96  26 1.97
   2  1.000  0.000  0.125-  11 1.35  15 1.35  19 1.42  17 1.42  20 1.42  26 1.96  30 1.96  29 1.96
                            25 1.96  28 1.96  32 1.96
   3  0.500  0.500  0.125-  10 1.35  14 1.35  18 1.42  20 1.42  17 1.42  27 1.96  31 1.96  28 1.96
                            32 1.96  25 1.96  29 1.96
   4  1.000  0.500  0.125-   9 1.35  13 1.35  17 1.42  19 1.42  18 1.42  28 1.96  32 1.96  31 1.96
                            27 1.96  26 1.96  30 1.96
   5  0.500  0.000  0.625-  12 1.35  16 1.35  24 1.42  22 1.42  23 1.42  25 1.96  29 1.96  26 1.96
                            30 1.96  27 1.96  31 1.96
   6  1.000  0.000  0.625-  11 1.35  15 1.35  23 1.42  21 1.42  24 1.42  26 1.96  30 1.96  29 1.96
                            25 1.96  28 1.96  32 1.96
   7  0.500  0.500  0.625-  10 1.35  14 1.35  22 1.42  24 1.42  21 1.42  27 1.96  31 1.96  28 1.96
                            32 1.96  25 1.96  29 1.96
   8  1.000  0.500  0.625-   9 1.35  13 1.35  21 1.42  23 1.42  22 1.42  28 1.96  32 1.96  31 1.96
                            27 1.96  26 1.96  30 1.96
   9  0.000  0.500  0.375-   4 1.35   8 1.35  28 1.42  27 1.42  26 1.42  21 1.96  17 1.96  23 1.96
                            19 1.96  18 1.96  22 1.96
  10  0.500  0.500  0.375-   3 1.35   7 1.35  27 1.42  28 1.42  25 1.42  22 1.96  18 1.96  24 1.96
                            20 1.96  21 1.96  17 1.96
  11  0.000  1.000  0.375-   2 1.35   6 1.35  26 1.42  25 1.42  28 1.42  23 1.96  19 1.96  17 1.96
                            21 1.96  24 1.96  20 1.96
  12  0.500  1.000  0.375-   5 1.35   1 1.35  25 1.42  26 1.42  27 1.42  24 1.96  20 1.96  18 1.96
                            22 1.96  19 1.96  23 1.96
  13  0.000  0.500  0.875-   4 1.35   8 1.35  32 1.42  31 1.42  30 1.42  21 1.96  17 1.96  23 1.96
                            19 1.96  18 1.96  22 1.96
  14  0.500  0.500  0.875-   3 1.35   7 1.35  31 1.42  32 1.42  29 1.42  22 1.96  18 1.96  24 1.96
                            20 1.96  21 1.96  17 1.96
  15  0.000  1.000  0.875-   2 1.35   6 1.35  30 1.42  29 1.42  32 1.42  23 1.96  19 1.96  17 1.96
                            21 1.96  24 1.96  20 1.96
  16  0.500  1.000  0.875-   1 1.34   5 1.35  29 1.42  30 1.42  31 1.42  24 1.96  20 1.96  18 1.96
                            22 1.96  19 1.96  23 1.96
  17  0.167  0.333  0.125-   4 1.42   2 1.42   3 1.42  27 1.96  31 1.96  30 1.96  26 1.96   9 1.96
                            13 1.96  11 1.96  15 1.96  14 1.96  10 1.96  25 1.96  29 1.96
  18  0.667  0.333  0.125-   3 1.42   4 1.42   1 1.42  28 1.96  32 1.96  29 1.96  25 1.96  10 1.96
                            14 1.96  12 1.96  16 1.96   9 1.96  13 1.96  30 1.96  26 1.96
  19  0.167  0.833  0.125-   1 1.42   2 1.42   4 1.42  25 1.96  29 1.96  28 1.96  32 1.96  11 1.96
                            15 1.96  13 1.96   9 1.96  12 1.96  16 1.96  31 1.96  27 1.96
  20  0.667  0.833  0.125-   3 1.42   2 1.42   1 1.43  26 1.96  30 1.96  27 1.96  31 1.96  12 1.96
                            16 1.96  14 1.96  10 1.96  15 1.96  11 1.96  28 1.96  32 1.96
  21  0.167  0.333  0.625-   8 1.42   6 1.42   7 1.42  27 1.96  31 1.96  30 1.96  26 1.96   9 1.96
                            13 1.96  11 1.96  15 1.96  14 1.96  10 1.96  25 1.96  29 1.96
  22  0.667  0.333  0.625-   7 1.42   5 1.42   8 1.42  28 1.96  32 1.96  29 1.96  25 1.96  10 1.96
                            14 1.96  12 1.96  16 1.96   9 1.96  13 1.96  30 1.96  26 1.96
  23  0.167  0.833  0.625-   6 1.42   8 1.42   5 1.42  25 1.96  29 1.96  28 1.96  32 1.96  11 1.96
                            15 1.96  13 1.96   9 1.96  12 1.96  16 1.96  31 1.96  27 1.96
  24  0.667  0.833  0.625-   5 1.42   7 1.42   6 1.42  26 1.96  30 1.96  27 1.96  31 1.96  12 1.96
                            16 1.96  14 1.96  10 1.96  15 1.96  11 1.96  28 1.96  32 1.96
  25  0.333  0.167  0.375-  12 1.42  11 1.42  10 1.42  19 1.96  23 1.96  22 1.96  18 1.96   5 1.96
                             6 1.96   2 1.96   7 1.96   3 1.96  17 1.96  21 1.96   1 1.96
  26  0.833  0.167  0.375-  11 1.42  12 1.42   9 1.42  20 1.96  24 1.96  21 1.96  17 1.96   6 1.96
                             2 1.96   5 1.96   8 1.96   4 1.96  22 1.96  18 1.96   1 1.97
  27  0.333  0.667  0.375-  10 1.42   9 1.42  12 1.42  17 1.96  21 1.96  20 1.96  24 1.96   7 1.96
                             3 1.96   8 1.96   4 1.96   5 1.96  23 1.96  19 1.96   1 1.96
  28  0.833  0.667  0.375-   9 1.42  10 1.42  11 1.42  18 1.96  22 1.96  19 1.96  23 1.96   8 1.96
                             4 1.96   3 1.96   7 1.96   6 1.96   2 1.96  20 1.96  24 1.96
  29  0.333  0.167  0.875-  16 1.42  15 1.42  14 1.42   1 1.95  19 1.96  23 1.96  22 1.96  18 1.96
                             5 1.96   6 1.96   2 1.96   7 1.96   3 1.96  17 1.96  21 1.96
  30  0.833  0.167  0.875-  15 1.42  16 1.42  13 1.42   1 1.96  20 1.96  24 1.96  21 1.96  17 1.96
                             6 1.96   2 1.96   5 1.96   8 1.96   4 1.96  22 1.96  18 1.96
  31  0.333  0.667  0.875-  14 1.42  13 1.42  16 1.42   1 1.95  17 1.96  21 1.96  20 1.96  24 1.96
                             7 1.96   3 1.96   8 1.96   4 1.96   5 1.96  23 1.96  19 1.96
  32  0.833  0.667  0.875-  13 1.42  14 1.42  15 1.42  18 1.96  22 1.96  19 1.96  23 1.96   8 1.96
                             4 1.96   3 1.96   7 1.96   6 1.96   2 1.96  20 1.96  24 1.96

  LATTYP: Found a base centered orthorhombic cell.
 ALAT       =     4.9339256766
 B/A-ratio  =     1.7322311103
 C/A-ratio  =     1.0905299753

  Lattice vectors:

 A1 = (   4.9343108848,  -0.0002224000,   0.0000000000)
 A2 = (  -2.4673480464,   4.2731273763,   0.0000000000)
 A3 = (   0.0000000000,   0.0000000000,   5.3805938460)

Analysis of symmetry for initial positions (statically):
 Subroutine PRICEL returns:
 Original cell was already a primitive cell.

 Routine SETGRP: Setting up the symmetry group for a
 base centered orthorhombic supercell.

 Subroutine GETGRP returns: Found  1 space group operations
 (whereof  1 operations were pure point group operations)
 out of a pool of  8 trial point group operations.

The static configuration has the point symmetry C_1 .

Analysis of symmetry for dynamics (positions and initial velocities):
 Subroutine PRICEL returns:
 Original cell was already a primitive cell.

 Routine SETGRP: Setting up the symmetry group for a
 base centered orthorhombic supercell.

 Subroutine GETGRP returns: Found  1 space group operations
 (whereof  1 operations were pure point group operations)
 out of a pool of  8 trial point group operations.

The dynamic configuration has the point symmetry C_1 .

 KPOINTS: B4C B11C-CBC

Automatic generation of k-mesh.
Space group operators:
 irot       det(A)        alpha          n_x          n_y          n_z        tau_x        tau_y        tau_z
    1     1.000000     0.000000     1.000000     0.000000     0.000000     0.000000     0.000000     0.000000

 Subroutine IBZKPT returns following result:

 Found    163 irreducible k-points:

 Following reciprocal coordinates:
            Coordinates               Weight
  0.000000  0.000000  0.000000      1.000000
  0.111111  0.000000  0.000000      2.000000
  0.222222  0.000000  0.000000      2.000000
  0.333333  0.000000  0.000000      2.000000
  0.444444  0.000000  0.000000      2.000000
 -0.000000  0.111111  0.000000      2.000000
  0.111111  0.111111  0.000000      2.000000
  0.222222  0.111111  0.000000      2.000000
  0.333333  0.111111  0.000000      2.000000
  0.444444  0.111111  0.000000      2.000000
 -0.444444  0.111111  0.000000      2.000000
 -0.333333  0.111111  0.000000      2.000000
 -0.222222  0.111111  0.000000      2.000000
 -0.111111  0.111111  0.000000      2.000000
 -0.000000  0.222222  0.000000      2.000000
  0.111111  0.222222  0.000000      2.000000
  0.222222  0.222222  0.000000      2.000000
  0.333333  0.222222  0.000000      2.000000
  0.444444  0.222222  0.000000      2.000000
 -0.444444  0.222222  0.000000      2.000000
 -0.333333  0.222222  0.000000      2.000000
 -0.222222  0.222222  0.000000      2.000000
 -0.111111  0.222222  0.000000      2.000000
  0.000000  0.333333  0.000000      2.000000
  0.111111  0.333333  0.000000      2.000000
  0.222222  0.333333  0.000000      2.000000
  0.333333  0.333333  0.000000      2.000000
  0.444444  0.333333  0.000000      2.000000
 -0.444444  0.333333  0.000000      2.000000
 -0.333333  0.333333  0.000000      2.000000
 -0.222222  0.333333  0.000000      2.000000
 -0.111111  0.333333  0.000000      2.000000
 -0.000000  0.444444  0.000000      2.000000
  0.111111  0.444444  0.000000      2.000000
  0.222222  0.444444  0.000000      2.000000
  0.333333  0.444444  0.000000      2.000000
  0.444444  0.444444  0.000000      2.000000
 -0.444444  0.444444  0.000000      2.000000
 -0.333333  0.444444  0.000000      2.000000
 -0.222222  0.444444  0.000000      2.000000
 -0.111111  0.444444  0.000000      2.000000
  0.000000  0.000000  0.250000      2.000000
  0.111111  0.000000  0.250000      2.000000
  0.222222  0.000000  0.250000      2.000000
  0.333333  0.000000  0.250000      2.000000
  0.444444  0.000000  0.250000      2.000000
 -0.444444 -0.000000  0.250000      2.000000
 -0.333333 -0.000000  0.250000      2.000000
 -0.222222 -0.000000  0.250000      2.000000
 -0.111111 -0.000000  0.250000      2.000000
 -0.000000  0.111111  0.250000      2.000000
  0.111111  0.111111  0.250000      2.000000
  0.222222  0.111111  0.250000      2.000000
  0.333333  0.111111  0.250000      2.000000
  0.444444  0.111111  0.250000      2.000000
 -0.444444  0.111111  0.250000      2.000000
 -0.333333  0.111111  0.250000      2.000000
 -0.222222  0.111111  0.250000      2.000000
 -0.111111  0.111111  0.250000      2.000000
 -0.000000  0.222222  0.250000      2.000000
[...]
  0.333333  0.333333  0.500000      2.000000
  0.444444  0.333333  0.500000      2.000000
 -0.444444  0.333333  0.500000      2.000000
 -0.333333  0.333333  0.500000      2.000000
 -0.222222  0.333333  0.500000      2.000000
 -0.111111  0.333333  0.500000      2.000000
 -0.000000  0.444444  0.500000      2.000000
  0.111111  0.444444  0.500000      2.000000
  0.222222  0.444444  0.500000      2.000000
[...]

[...]

 eigenvalue-minimisations  : 17100
 total energy-change (2. order) :-0.5328902E-06  (-0.2178470E-07)
 number of electron     128.0000003 magnetization
 augmentation part        3.2009126 magnetization

 Free energy of the ion-electron system (eV)
  alpha Z        PSCENC =       735.46260533
  Ewald energy   TEWEN  =     -6691.30445182
  -Hartree energ DENC   =      -210.85835970
  -exchange      EXHF   =         0.00000000
  -V(xc)+E(xc)   XCENC  =       519.55386884
  PAW double counting   =      2797.01991651    -2841.31727439
  entropy T*S    EENTRO =         0.00000000
  eigenvalues    EBANDS =       871.38944363
  atomic energy  EATOM  =      4708.80920826
  free energy    TOTEN  =      -111.24504334 eV

  energy without entropy =     -111.24504334  energy(sigma->0) =     -111.24504334

 average (electrostatic) potential at core
  the test charge radii are     0.6991
  (the norm of the test charge is              1.0000)
       1 -38.9863       2 -38.9857       3 -38.9836       4 -38.9885       5 -38.9862
       6 -38.9860       7 -38.9845       8 -38.9880       9 -38.9881      10 -38.9869
      11 -38.9874      12 -38.9845      13 -38.9850      14 -38.9839      15 -38.9845
      16 -38.9881      17 -38.0119      18 -38.0118      19 -38.0079      20 -38.0157
      21 -38.0124      22 -38.0118      23 -38.0116      24 -38.0119      25 -38.0156
      26 -38.0038      27 -38.0098      28 -38.0122      29 -38.0202      30 -38.0079
      31 -38.0137      32 -38.0122

 E-fermi :  19.5715     XC(G=0): -16.0584     alpha+bet :-28.3171

 k-point     1 :       0.0000    0.0000    0.0000
  band No.  band energies     occupation
      1     -11.1415      2.00000
      2      -7.2153      2.00000
      3      -7.2086      2.00000
      4      -5.6674      2.00000
      5      -5.6668      2.00000
      6      -5.6658      2.00000
      7      -3.9726      2.00000
      8      -3.9722      2.00000
      9      -3.9715      2.00000
     10      -2.1064      2.00000
     11      -2.0938      2.00000
     12      -2.0921      2.00000
     13      -2.0909      2.00000
     14      -2.0892      2.00000
     15      -2.0765      2.00000
     16       0.4436      2.00000
     17       0.4446      2.00000
     18       0.4500      2.00000
     19       0.4519      2.00000
     20       0.4575      2.00000
     21       0.4586      2.00000
     22       1.3101      2.00000
     23       4.1828      2.00000
     24       4.1846      2.00000
     25       4.1852      2.00000
     26       5.1497      2.00000
     27       5.1504      2.00000
     28       5.1511      2.00000
     29       8.5105      2.00000
     30       8.5139      2.00000
     31       8.5212      2.00000
     32       8.5219      2.00000
     33       8.5290      2.00000
     34       8.5319      2.00000
     35       8.7696      2.00000
     36       8.9172      2.00000
     37       8.9200      2.00000
     38      11.1218      2.00000
     39      11.1290      2.00000
     40      11.1360      2.00000
     41      12.2275      2.00000
     42      12.2343      2.00000
     43      12.2442      2.00000
     44      12.2511      2.00000
     45      12.9498      2.00000
     46      12.9513      2.00000
     47      12.9523      2.00000
     48      13.3787      2.00000
     49      13.3821      2.00000
     50      13.3833      2.00000
     51      13.6249      2.00000
     52      13.6356      2.00000
     53      16.1309      2.00000
     54      16.1369      2.00000
     55      16.1405      2.00000
     56      16.2742      2.00000
     57      16.2824      2.00000
     58      16.2841      2.00000
     59      16.2854      2.00000
     60      16.2868      2.00000
[...]
     70      21.4754      0.00000
     71      21.4801      0.00000
     72      22.2763      0.00000
     73      22.2766      0.00000
     74      22.5279      0.00000
     75      22.5387      0.00000
     76      22.5445      0.00000
     77      22.5553      0.00000
     78      24.1873      0.00000
     79      24.2171      0.00000
     80      24.2183      0.00000
     81      24.2205      0.00000
     82      24.2215      0.00000
     83      24.2516      0.00000
     84      25.1358      0.00000

[...]

 k-point   163 :      -0.1111    0.4444    0.5000
  band No.  band energies     occupation
      1      -9.1417      2.00000
      2      -9.1343      2.00000
      3      -7.7631      2.00000
      4      -7.7555      2.00000
      5      -6.4206      2.00000
      6      -6.4127      2.00000
      7      -4.5840      2.00000
      8      -4.5754      2.00000
      9      -1.6193      2.00000
     10      -1.6133      2.00000
     11      -1.2838      2.00000
     12      -1.2761      2.00000
     13      -0.3201      2.00000
     14      -0.3140      2.00000
     15       0.4632      2.00000
     16       0.4719      2.00000
     17       0.9090      2.00000
     18       0.9154      2.00000
     19       1.4411      2.00000
     20       1.4490      2.00000
     21       1.8722      2.00000
     22       1.8807      2.00000
     23       2.2860      2.00000
     24       2.2927      2.00000
     25       3.2237      2.00000
     26       3.2318      2.00000
     27       5.4025      2.00000
     28       5.4117      2.00000
     29       5.8933      2.00000
     30       5.9022      2.00000
     31       6.9597      2.00000
     32       6.9694      2.00000
     33       7.2701      2.00000
     34       7.2791      2.00000
     35       8.1889      2.00000
     36       8.1994      2.00000
     37       9.2694      2.00000
     38       9.2797      2.00000
     39       9.6432      2.00000
     40       9.6530      2.00000
     41      11.2174      2.00000
     42      11.2271      2.00000
     43      11.6793      2.00000
     44      11.6910      2.00000
     45      13.4181      2.00000
     46      13.4271      2.00000
     47      14.0096      2.00000
     48      14.0183      2.00000
     49      15.3117      2.00000
     50      15.3311      2.00000
     51      15.7315      2.00000
     52      15.7377      2.00000
     53      16.0684      2.00000
     54      16.0862      2.00000
     55      16.7134      2.00000
     56      16.7361      2.00000
     57      17.3149      2.00000
     58      17.3188      2.00000
     59      17.3789      2.00000
     60      17.4076      2.00000
[...]
     70      20.5956      0.00000
     71      20.8770      0.00000
     72      20.8788      0.00000
     73      23.5415      0.00000
     74      23.5485      0.00000
     75      23.7022      0.00000
     76      23.7089      0.00000
     77      23.7194      0.00000
     78      23.7277      0.00000
     79      24.0872      0.00000
     80      24.0922      0.00000
     81      24.3312      0.00000
     82      24.3379      0.00000
     83      26.0057      0.00000
     84      26.0189      0.00000

 soft charge-density along one line, spin component           1
         0         1         2         3         4         5         6         7         8         9
 total charge-density along one line

------------------------ aborting loop because EDIFF is reached ----------------------------------------

         DFTD3 V3.0 Rev 1
 IVDW         = 11
 DF pbe
 parameters
 VDW_S6       =    1.0000
 VDW_S8       =    0.7220
 VDW_SR       =    1.2170
 rs18     =    1.0000
 alpha6   =   14.0000
 alpha8   =   16.0000
 k1-k3    =   16.0000    1.3333   -4.0000
 VDW_RADIUS   =   50.2022 A
 VDW_CNRADIUS =   21.1671 A
 Edisp (eV)   -5.69184

 E6    (eV) :    -3.4208
 E8    (eV) :    -2.2711
 % E8        : 39.90

  FORCE on cell =-STRESS in cart. coord.  units (eV):
  Direction    XX          YY          ZZ          XY          YZ          ZX
  Alpha Z   735.46261   735.46261   735.46261
  Ewald   -2275.42033 -2275.82653 -2140.08392     0.70276    -0.00016    -0.02570
  Hartree    52.21910    52.14143   106.49868     0.03083    -0.00256     0.00022
  E(xc)    -522.53563  -522.53639  -522.90680     0.00122    -0.00003     0.00001
  Local      34.00271    34.41077   -50.17071    -0.59841     0.01000     0.00500
  n-local   -89.52944   -89.52158  -120.66089     0.01653     0.00299    -0.00749
  augment   -13.68254   -13.68199   -14.85090    -0.00133    -0.00001     0.00029
  Kinetic  2329.23753  2329.05287  2553.80773    -0.23449     0.00979    -0.00297
  Fock        0.00000     0.00000     0.00000     0.00000     0.00000     0.00000
  vdW        -5.41693    -5.41705    -5.42202     0.00019    -0.00000    -0.00001
  Total     244.33708   244.08416   541.67377    -0.08270     0.02002    -0.03065
  in kB    3450.71187  3447.13997  7649.92419    -1.16789     0.28277    -0.43281

 VOLUME and BASIS-vectors are now :
  energy-cutoff  :      600.00
  volume of cell :      113.45
      direct lattice vectors                 reciprocal lattice vectors
     4.934310885 -0.000222400  0.000000000     0.202667819  0.117022500  0.000000000
    -2.467348046  4.273127376  0.000000000     0.000010548  0.234026730  0.000000000
     0.000000000  0.000000000  5.380593846     0.000000000  0.000000000  0.185853091

  length of vectors
     4.934310890  4.934310890  5.380593846     0.234026730  0.234026730  0.185853091

 FORCES acting on ions
    electron-ion (+dipol)            ewald-force                    non-local-force                 convergence-correction
   -.107E+01 -.119E-01 -.275E+01   0.124E+01 0.128E-01 0.311E+01   -.167E-01 0.402E-02 0.502E-01   0.124E-04 -.184E-04 -.788E-04
   0.451E+00 -.404E-02 -.226E+00   -.432E+00 0.211E-02 0.177E+00   -.130E-01 0.143E-02 0.793E-02   -.380E-04 0.520E-05 0.145E-04
   0.515E-01 -.236E+00 -.220E+00   -.406E-01 0.228E+00 0.177E+00   -.103E-01 0.612E-02 0.641E-02   -.938E-05 0.331E-04 0.224E-04
   0.524E-01 0.224E+00 -.222E+00   -.405E-01 -.224E+00 0.177E+00   -.109E-01 0.262E-02 0.753E-02   0.183E-04 -.216E-04 0.363E-04
   -.863E-01 -.507E-02 0.231E+00   0.860E-01 0.207E-02 -.384E+00   -.322E-01 0.207E-02 -.961E-02   0.504E-04 -.128E-05 -.996E-04
   0.859E-01 -.457E-02 0.102E+00   -.769E-01 0.209E-02 -.132E+00   0.996E-02 0.301E-02 0.130E-01   -.578E-04 -.364E-06 -.838E-04
   0.165E-01 -.446E-01 0.107E+00   -.582E-02 0.431E-01 -.132E+00   -.144E-01 -.104E-01 0.117E-01   -.214E-05 0.329E-04 -.673E-04
   0.159E-01 0.352E-01 0.108E+00   -.580E-02 -.390E-01 -.132E+00   -.134E-01 0.174E-01 0.107E-01   0.138E-05 -.298E-04 -.760E-04
   0.919E-02 0.100E+00 0.549E-01   -.903E-02 -.111E+00 -.228E-01   0.139E-02 -.120E-02 0.447E-02   -.180E-04 -.359E-05 -.915E-04
   0.125E-02 -.957E-01 0.590E-01   -.908E-02 0.107E+00 -.228E-01   0.561E-02 -.204E-02 -.424E-02   0.219E-04 0.665E-04 -.782E-04
   0.176E+00 0.994E-02 0.616E-01   -.197E+00 -.210E-02 -.222E-01   0.446E-02 -.492E-02 -.184E-02   -.603E-04 -.467E-04 -.726E-04
   -.512E+00 0.450E-02 0.137E+01   0.580E+00 -.214E-02 -.146E+01   0.291E-02 -.317E-02 -.329E-01   0.512E-04 -.257E-04 -.966E-05
   0.276E-02 0.106E+00 0.611E-01   -.930E-02 -.112E+00 -.217E-01   0.418E-02 -.261E-02 -.710E-02   0.402E-04 -.268E-04 0.131E-03
   0.992E-02 -.928E-01 0.558E-01   -.935E-02 0.108E+00 -.217E-01   0.832E-03 -.638E-02 0.230E-02   -.401E-04 0.360E-04 0.122E-03
   0.179E+00 0.544E-03 0.642E-01   -.200E+00 -.210E-02 -.223E-01   0.599E-02 -.223E-03 -.287E-02   -.535E-04 0.244E-04 0.141E-03
   -.527E+00 0.506E-02 0.137E+01   0.601E+00 -.214E-02 -.147E+01   0.277E-03 -.207E-02 -.330E-01   0.361E-04 -.267E-04 0.188E-03
   0.133E+00 0.117E-01 -.192E+00   -.133E+00 -.937E-02 0.141E+00   0.123E-01 0.358E-03 0.484E-01   -.106E-03 0.141E-03 0.157E-04
   -.456E+00 0.182E-01 -.608E+00   0.474E+00 -.183E-01 0.575E+00   -.542E-01 -.521E-03 0.659E-01   0.908E-04 0.229E-03 0.408E-04
   0.595E+00 0.623E+00 -.613E+00   -.734E+00 -.711E+00 0.582E+00   0.252E-01 0.464E-01 0.645E-01   -.595E-04 -.229E-03 0.305E-04
   0.599E+00 -.594E+00 -.600E+00   -.737E+00 0.685E+00 0.568E+00   0.287E-01 -.481E-01 0.662E-01   0.800E-04 -.142E-03 0.311E-04
   0.195E-01 0.103E-01 0.113E+00   -.157E-01 -.100E-01 -.115E+00   0.266E-01 -.445E-03 0.106E-02   -.870E-04 0.138E-03 -.707E-04
   -.744E-01 0.906E-02 0.217E+00   0.580E-01 -.985E-02 -.208E+00   0.375E-02 0.900E-03 -.180E-01   0.931E-04 0.217E-03 -.106E-03
   -.743E-02 0.518E-01 0.222E+00   0.111E-01 -.374E-01 -.209E+00   0.684E-02 0.912E-03 -.200E-01   -.624E-04 -.232E-03 -.104E-03
   -.116E-01 -.236E-01 0.218E+00   0.115E-01 0.165E-01 -.207E+00   0.747E-02 -.354E-02 -.203E-01   0.757E-04 -.130E-03 -.888E-04
   -.127E+00 0.186E-02 -.597E-01   0.146E+00 -.268E-03 0.883E-01   0.629E-02 -.210E-02 -.234E-01   -.796E-04 0.136E-03 -.937E-04
   0.331E+00 0.236E+00 0.355E+00   -.376E+00 -.279E+00 -.387E+00   -.941E-02 -.603E-02 -.206E-01   0.788E-04 0.213E-03 -.815E-04
   -.997E-01 -.276E+00 0.152E+00   0.126E+00 0.312E+00 -.151E+00   0.288E-02 0.939E-02 -.240E-01   -.682E-04 -.211E-03 -.985E-04
   0.765E-01 -.117E-01 0.221E-01   -.976E-01 0.978E-02 -.130E-01   -.617E-02 0.254E-03 0.315E-02   0.556E-04 -.122E-03 -.106E-03
   0.334E+00 -.266E+00 0.357E+00   -.381E+00 0.305E+00 -.391E+00   -.470E-02 0.680E-02 -.173E-01   -.718E-04 0.126E-03 0.160E-03
   -.125E+00 -.264E-01 -.657E-01   0.143E+00 0.192E-01 0.924E-01   0.710E-02 0.401E-02 -.219E-01   0.871E-04 0.201E-03 0.155E-03
   -.103E+00 0.253E+00 0.146E+00   0.129E+00 -.292E+00 -.148E+00   0.350E-02 -.815E-02 -.204E-01   -.555E-04 -.210E-03 0.166E-03
   0.774E-01 -.115E-01 0.233E-01   -.986E-01 0.980E-02 -.124E-01   -.296E-02 -.835E-03 0.374E-02   0.526E-04 -.123E-03 0.146E-03
   0.221E-01 -.311E-02 -.898E-01   0.211E-13 0.415E-14 -.963E-13   -.220E-01 0.311E-02 0.899E-01   -.238E-04 -.717E-06 -.609E-05

 POSITION                                       TOTAL-FORCE (eV/Angst)
      2.46040     -0.00011      0.66520         0.159865      0.004881      0.414834
      4.93431     -0.00022      0.67257         0.005966     -0.000503     -0.041447
      1.23348      2.13645      0.67257         0.000684     -0.001545     -0.037033
      3.70064      2.13634      0.67257         0.001092      0.003089     -0.037949
      2.46715     -0.00011      3.36287        -0.032349     -0.000928     -0.162550
      4.93431     -0.00022      3.36287         0.018937      0.000530     -0.017003
      1.23348      2.13645      3.36287        -0.003780     -0.011822     -0.013103
      3.70064      2.13634      3.36287        -0.003283      0.013623     -0.013412
     -1.23367      2.13656      2.01772         0.001549     -0.011830      0.036516
      1.23348      2.13645      2.01772        -0.002174      0.008971      0.031920
     -2.46735      4.27313      2.01772        -0.017133      0.002887      0.037546
     -0.00019      4.27302      2.01772         0.071131     -0.000829     -0.125329
     -1.23367      2.13656      4.70802        -0.002304     -0.008738      0.032494
      1.23348      2.13645      4.70802         0.001382      0.009046      0.036622
     -2.46735      4.27313      4.70802        -0.014955     -0.001747      0.039225
     -0.00019      4.27302      4.70802         0.074422      0.000829     -0.137452
     -0.00019      1.42441      0.67257         0.011726      0.002814     -0.003025
      2.46696      1.42430      0.67257        -0.036208     -0.000358      0.032882
     -1.23387      3.56098      0.67257        -0.113326     -0.042298      0.033399
      1.23329      3.56086      0.67257        -0.108499      0.042770      0.034026
     -0.00019      1.42441      3.36287         0.030287     -0.000055     -0.001619
      2.46696      1.42430      3.36287        -0.012542      0.000322     -0.009745
     -1.23387      3.56098      3.36287         0.010500      0.015069     -0.007488
      1.23329      3.56086      3.36287         0.007470     -0.010762     -0.009912
      1.23367      0.71204      2.01772         0.025271     -0.000363      0.005098
      3.70083      0.71193      2.01772        -0.054848     -0.048867     -0.052407
     -0.00000      2.84860      2.01772         0.029218      0.045122     -0.023265
      2.46715      2.84849      2.01772        -0.027279     -0.001780      0.012185
      1.23367      0.71204      4.70802        -0.051221      0.045675     -0.051769
      3.70083      0.71193      4.70802         0.025024     -0.002997      0.005007
     -0.00000      2.84860      4.70802         0.029627     -0.047562     -0.021992
      2.46715      2.84849      4.70802        -0.024249     -0.002642      0.014744
    total drift:                                0.000016     -0.000005      0.000017

  FREE ENERGIE OF THE ION-ELECTRON SYSTEM (eV)
  free  energy   TOTEN  =      -116.93688621 eV

  energy  without entropy=     -116.93688621  energy(sigma->0) =     -116.93688621

 BZINTS: Fermi energy: 19.571517;128.000000 electrons
         Band energy: 871.389444;  BLOECHL correction: -0.260262