 vasp.5.3.5 31Mar14 (build Nov 02 2014 15:17:37) complex

 executed on        ion-Intel-MKL date 2016.08.14  15:35:14

 INCAR:
 POTCAR:   PAW_PBE C 08Apr2002
 POTCAR:   PAW_PBE C 08Apr2002
   VRHFIN =C: s2p2

   TITEL  = PAW_PBE C 08Apr2002
   POMASS =   12.011; ZVAL   =    4.000    mass and valenz
   ENMAX  =  400.000; ENMIN  =  300.000 eV
   QCUT   =   -5.516; QGAM   =   11.032    optimization parameters

   Description
     l     E      TYP  RCUT    TYP  RCUT
     0   .000     23  1.200
     0   .000     23  1.200
     1   .000     23  1.500
     1  2.500     23  1.500
     2   .000      7  1.500

 PAW_PBE C 08Apr2002                    :

 POSCAR: CIF file
  positions in direct lattice
  velocities in cartesian coordinates
 exchange correlation table for  LEXCH =        8
   RHO(1)=    0.500       N(1)  =     2000
   RHO(2)=  100.500       N(2)  =     4000

 ion  position               nearest neighbor table
   1  0.999  0.001  0.250-   3 1.42   3 1.42   3 1.42
   2  0.001  0.999  0.750-   4 1.42   4 1.42   4 1.42
   3  0.333  0.667  0.250-   1 1.42   1 1.42   1 1.42
   4  0.667  0.333  0.750-   2 1.42   2 1.42   2 1.42

  LATTYP: Found a base centered orthorhombic cell.
 ALAT       =     2.4647750986
 B/A-ratio  =     1.7336081796
 C/A-ratio  =     1.7488970801

  Lattice vectors:

 A1 = (   2.4664372490,  -0.0009596430,   0.0000000000)
 A2 = (  -1.2340496996,   2.1355174929,   0.0000000000)
 A3 = (   0.0000000000,   0.0000000000,   4.3106379730)

Analysis of symmetry for initial positions (statically):
 Subroutine PRICEL returns:
 Original cell was already a primitive cell.

 Routine SETGRP: Setting up the symmetry group for a
 base centered orthorhombic supercell.

 Subroutine GETGRP returns: Found  8 space group operations
 (whereof  4 operations were pure point group operations)
 out of a pool of  8 trial point group operations.

The static configuration has the point symmetry C_2h.
 The point group associated with its full space group is D_2h.

Analysis of symmetry for dynamics (positions and initial velocities):
 Subroutine PRICEL returns:
 Original cell was already a primitive cell.

 Routine SETGRP: Setting up the symmetry group for a
 base centered orthorhombic supercell.

 Subroutine GETGRP returns: Found  8 space group operations
 (whereof  4 operations were pure point group operations)
 out of a pool of  8 trial point group operations.

The dynamic configuration has the point symmetry C_2h.
 The point group associated with its full space group is D_2h.

 KPOINTS: B4C B11C-CBC

Automatic generation of k-mesh.
Space group operators:
 irot       det(A)        alpha          n_x          n_y          n_z        tau_x        tau_y        tau_z
    1     1.000000     0.000000     1.000000     0.000000     0.000000     0.000000     0.000000     0.000000
    2    -1.000000     0.000000     1.000000     0.000000     0.000000     0.000000     0.000000     0.000000
    3     1.000000   180.000000    -0.500000    -0.866025     0.000000     0.000000     0.000000     0.000000
    4    -1.000000   180.000000    -0.500000    -0.866025     0.000000     0.000000     0.000000     0.000000
    5     1.000000   180.000000     0.000000     0.000000     1.000000     0.000000     0.000000     0.500000
    6    -1.000000   180.000000     0.000000     0.000000     1.000000     0.000000     0.000000     0.500000
    7     1.000000   180.000000     0.866025    -0.500000     0.000000     0.000000     0.000000     0.500000
    8    -1.000000   180.000000     0.866025    -0.500000     0.000000     0.000000     0.000000     0.500000

 Subroutine IBZKPT returns following result:

 Found    455 irreducible k-points:

 Following reciprocal coordinates:
            Coordinates               Weight
  0.000000  0.000000  0.000000      1.000000
  0.055556 -0.000000  0.000000      4.000000
  0.111111 -0.000000  0.000000      4.000000
  0.166667  0.000000  0.000000      4.000000
  0.222222 -0.000000  0.000000      4.000000
  0.277778  0.000000  0.000000      4.000000
  0.333333  0.000000  0.000000      4.000000
  0.388889  0.000000  0.000000      4.000000
  0.444444 -0.000000  0.000000      4.000000
  0.500000  0.000000  0.000000      2.000000
  0.055556  0.055556  0.000000      2.000000
  0.111111  0.055556  0.000000      4.000000
  0.166667  0.055556  0.000000      4.000000
  0.222222  0.055556  0.000000      4.000000
  0.277778  0.055556  0.000000      4.000000
  0.333333  0.055556  0.000000      4.000000
  0.388889  0.055556  0.000000      4.000000
  0.444444  0.055556  0.000000      4.000000
  0.500000  0.055556  0.000000      4.000000
 -0.444444  0.055556  0.000000      4.000000
 -0.388889  0.055556  0.000000      4.000000
 -0.333333  0.055556  0.000000      4.000000
 -0.277778  0.055556  0.000000      4.000000
 -0.222222  0.055556  0.000000      4.000000
 -0.166667  0.055556  0.000000      4.000000
 -0.111111  0.055556  0.000000      4.000000
 -0.055556  0.055556  0.000000      2.000000
  0.111111  0.111111  0.000000      2.000000
  0.166667  0.111111  0.000000      4.000000
  0.222222  0.111111  0.000000      4.000000
  0.277778  0.111111  0.000000      4.000000
  0.333333  0.111111  0.000000      4.000000
  0.388889  0.111111  0.000000      4.000000
  0.444444  0.111111  0.000000      4.000000
  0.500000  0.111111  0.000000      4.000000
 -0.444444  0.111111  0.000000      4.000000
 -0.388889  0.111111  0.000000      4.000000
 -0.333333  0.111111  0.000000      4.000000
 -0.277778  0.111111  0.000000      4.000000
 -0.222222  0.111111  0.000000      4.000000
 -0.166667  0.111111  0.000000      4.000000
 -0.111111  0.111111  0.000000      2.000000
  0.166667  0.166667  0.000000      2.000000
  0.222222  0.166667  0.000000      4.000000
  0.277778  0.166667  0.000000      4.000000
  0.333333  0.166667  0.000000      4.000000
  0.388889  0.166667  0.000000      4.000000
  0.444444  0.166667  0.000000      4.000000
  0.500000  0.166667  0.000000      4.000000
 -0.444444  0.166667  0.000000      4.000000
 -0.388889  0.166667  0.000000      4.000000
 -0.333333  0.166667  0.000000      4.000000
 -0.277778  0.166667  0.000000      4.000000
 -0.222222  0.166667  0.000000      4.000000
 -0.166667  0.166667  0.000000      2.000000
  0.222222  0.222222  0.000000      2.000000
  0.277778  0.222222  0.000000      4.000000
  0.333333  0.222222  0.000000      4.000000
  0.388889  0.222222  0.000000      4.000000
  0.444444  0.222222  0.000000      4.000000
[...]
  0.388889  0.333333  0.500000      4.000000
  0.444444  0.333333  0.500000      4.000000
  0.500000  0.333333  0.500000      4.000000
 -0.444444  0.333333  0.500000      4.000000
 -0.388889  0.333333  0.500000      4.000000
 -0.333333  0.333333  0.500000      2.000000
  0.388889  0.388889  0.500000      2.000000
  0.444444  0.388889  0.500000      4.000000
  0.500000  0.388889  0.500000      4.000000
 -0.444444  0.388889  0.500000      4.000000
 -0.388889  0.388889  0.500000      2.000000
  0.444444  0.444444  0.500000      2.000000
  0.500000  0.444444  0.500000      4.000000
 -0.444444  0.444444  0.500000      2.000000
  0.500000  0.500000  0.500000      1.000000

 Following cartesian coordinates:
            Coordinates               Weight
  0.000000  0.000000  0.000000      1.000000
  0.022530  0.013019  0.000000      4.000000
  0.045059  0.026038  0.000000      4.000000
  0.067589  0.039058  0.000000      4.000000
  0.090119  0.052077  0.000000      4.000000
  0.112648  0.065096  0.000000      4.000000
  0.135178  0.078115  0.000000      4.000000
  0.157708  0.091134  0.000000      4.000000
  0.180237  0.104154  0.000000      4.000000
  0.202767  0.117173  0.000000      2.000000
  0.022540  0.039040  0.000000      2.000000
  0.045069  0.052059  0.000000      4.000000
  0.067599  0.065079  0.000000      4.000000
  0.090129  0.078098  0.000000      4.000000
  0.112659  0.091117  0.000000      4.000000
  0.135188  0.104136  0.000000      4.000000
  0.157718  0.117155  0.000000      4.000000
  0.180248  0.130175  0.000000      4.000000
  0.202777  0.143194  0.000000      4.000000
 -0.180227 -0.078133  0.000000      4.000000
 -0.157698 -0.065114  0.000000      4.000000
 -0.135168 -0.052094  0.000000      4.000000
 -0.112638 -0.039075  0.000000      4.000000
 -0.090109 -0.026056  0.000000      4.000000
 -0.067579 -0.013037  0.000000      4.000000
 -0.045049 -0.000018  0.000000      4.000000
 -0.022520  0.013002  0.000000      2.000000
  0.045080  0.078080  0.000000      2.000000
  0.067609  0.091099  0.000000      4.000000
  0.090139  0.104119  0.000000      4.000000
  0.112669  0.117138  0.000000      4.000000
  0.135198  0.130157  0.000000      4.000000
  0.157728  0.143176  0.000000      4.000000
  0.180258  0.156195  0.000000      4.000000
  0.202787  0.169215  0.000000      4.000000
 -0.180217 -0.052112  0.000000      4.000000
 -0.157688 -0.039093  0.000000      4.000000
 -0.135158 -0.026073  0.000000      4.000000
 -0.112628 -0.013054  0.000000      4.000000
 -0.090098 -0.000035  0.000000      4.000000
 -0.067569  0.012984  0.000000      4.000000
 -0.045039  0.026003  0.000000      2.000000
  0.067619  0.117120  0.000000      2.000000
  0.090149  0.130139  0.000000      4.000000
  0.112679  0.143159  0.000000      4.000000
  0.135208  0.156178  0.000000      4.000000
  0.157738  0.169197  0.000000      4.000000
  0.180268  0.182216  0.000000      4.000000
  0.202798  0.195236  0.000000      4.000000
 -0.180207 -0.026091  0.000000      4.000000
 -0.157677 -0.013072  0.000000      4.000000
 -0.135148 -0.000053  0.000000      4.000000
 -0.112618  0.012967  0.000000      4.000000
 -0.090088  0.025986  0.000000      4.000000
 -0.067559  0.039005  0.000000      2.000000
  0.090159  0.156160  0.000000      2.000000
  0.112689  0.169180  0.000000      4.000000
  0.135219  0.182199  0.000000      4.000000
  0.157748  0.195218  0.000000      4.000000
  0.180278  0.208237  0.000000      4.000000
[...]
  0.157769  0.247260  0.115992      4.000000
  0.180298  0.260279  0.115992      4.000000
  0.202828  0.273298  0.115992      4.000000
 -0.180177  0.051972  0.115992      4.000000
 -0.157647  0.064991  0.115992      4.000000
 -0.135117  0.078010  0.115992      2.000000
  0.157779  0.273281  0.115992      2.000000
  0.180308  0.286300  0.115992      4.000000
  0.202838  0.299319  0.115992      4.000000
 -0.180167  0.077993  0.115992      4.000000
 -0.157637  0.091012  0.115992      2.000000
  0.180318  0.312321  0.115992      2.000000
  0.202848  0.325340  0.115992      4.000000
 -0.180156  0.104013  0.115992      2.000000
  0.202858  0.351361  0.115992      1.000000

 TETIRR: Found   3888 inequivalent tetrahedra from    15552

 I would recommend the setting:
   dimension x,y,z NGX =    20 NGY =   20 NGZ =   34
 SYSTEM =  graphite
 POSCAR =  CIF file

 Startparameter for this run:
   NWRITE =      2    write-flag & timer
   PREC   = accura    normal or accurate (medium, high low for compatibility)
   ISTART =      0    job   : 0-new  1-cont  2-samecut
   ICHARG =      2    charge: 1-file 2-atom 10-const
   ISPIN  =      1    spin polarized calculation?
   LNONCOLLINEAR =      F non collinear calculations
   LSORBIT =      F    spin-orbit coupling
[...]
 k-point 28 :   0.1111 0.1111 0.0000  plane waves:     745
 k-point 29 :   0.1667 0.1111 0.0000  plane waves:     754
 k-point 30 :   0.2222 0.1111 0.0000  plane waves:     755
 k-point 31 :   0.2778 0.1111 0.0000  plane waves:     756
 k-point 32 :   0.3333 0.1111 0.0000  plane waves:     767
 k-point 33 :   0.3889 0.1111 0.0000  plane waves:     769
 k-point 34 :   0.4444 0.1111 0.0000  plane waves:     761
 k-point 35 :   0.5000 0.1111 0.0000  plane waves:     767
 k-point 36 :  -0.4444 0.1111 0.0000  plane waves:     767
 k-point 37 :  -0.3889 0.1111 0.0000  plane waves:     758
 k-point 38 :  -0.3333 0.1111 0.0000  plane waves:     753
 k-point 39 :  -0.2778 0.1111 0.0000  plane waves:     754
 k-point 40 :  -0.2222 0.1111 0.0000  plane waves:     745
 k-point 41 :  -0.1667 0.1111 0.0000  plane waves:     742
 k-point 42 :  -0.1111 0.1111 0.0000  plane waves:     739
 k-point 43 :   0.1667 0.1667 0.0000  plane waves:     755
 k-point 44 :   0.2222 0.1667 0.0000  plane waves:     760
 k-point 45 :   0.2778 0.1667 0.0000  plane waves:     765
 k-point 46 :   0.3333 0.1667 0.0000  plane waves:     769
 k-point 47 :   0.3889 0.1667 0.0000  plane waves:     767
 k-point 48 :   0.4444 0.1667 0.0000  plane waves:     765
 k-point 49 :   0.5000 0.1667 0.0000  plane waves:     771
 k-point 50 :  -0.4444 0.1667 0.0000  plane waves:     765
 k-point 51 :  -0.3889 0.1667 0.0000  plane waves:     760
 k-point 52 :  -0.3333 0.1667 0.0000  plane waves:     755
 k-point 53 :  -0.2778 0.1667 0.0000  plane waves:     754
 k-point 54 :  -0.2222 0.1667 0.0000  plane waves:     751
 k-point 55 :  -0.1667 0.1667 0.0000  plane waves:     747
 k-point 56 :   0.2222 0.2222 0.0000  plane waves:     773
 k-point 57 :   0.2778 0.2222 0.0000  plane waves:     768
 k-point 58 :   0.3333 0.2222 0.0000  plane waves:     772
 k-point 59 :   0.3889 0.2222 0.0000  plane waves:     771
 k-point 60 :   0.4444 0.2222 0.0000  plane waves:     772
[...]
 k-point 85 :   0.5000 0.3889 0.0000  plane waves:     769
 k-point 86 :  -0.4444 0.3889 0.0000  plane waves:     756
 k-point 87 :  -0.3889 0.3889 0.0000  plane waves:     756
 k-point 88 :   0.4444 0.4444 0.0000  plane waves:     761
 k-point 89 :   0.5000 0.4444 0.0000  plane waves:     764
 k-point 90 :  -0.4444 0.4444 0.0000  plane waves:     754
 k-point 91 :   0.5000 0.5000 0.0000  plane waves:     760
 k-point 92 :   0.0000 0.0000 0.1250  plane waves:     731
 k-point 93 :   0.0556-0.0000 0.1250  plane waves:     738
 k-point 94 :   0.1111-0.0000 0.1250  plane waves:     744
 k-point 95 :   0.1667 0.0000 0.1250  plane waves:     751
 k-point 96 :   0.2222-0.0000 0.1250  plane waves:     751
 k-point 97 :   0.2778 0.0000 0.1250  plane waves:     755
 k-point 98 :   0.3333 0.0000 0.1250  plane waves:     753
 k-point 99 :   0.3889 0.0000 0.1250  plane waves:     759
 k-point ** :   0.4444-0.0000 0.1250  plane waves:     761
 k-point ** :   0.5000 0.0000 0.1250  plane waves:     758
 k-point ** :   0.0556 0.0556 0.1250  plane waves:     742
 k-point ** :   0.1111 0.0556 0.1250  plane waves:     748
 k-point ** :   0.1667 0.0556 0.1250  plane waves:     751
 k-point ** :   0.2222 0.0556 0.1250  plane waves:     753
 k-point ** :   0.2778 0.0556 0.1250  plane waves:     755
 k-point ** :   0.3333 0.0556 0.1250  plane waves:     760
 k-point ** :   0.3889 0.0556 0.1250  plane waves:     755
 k-point ** :   0.4444 0.0556 0.1250  plane waves:     761
 k-point ** :   0.5000 0.0556 0.1250  plane waves:     761
 k-point ** :  -0.4444 0.0556 0.1250  plane waves:     754
 k-point ** :  -0.3889 0.0556 0.1250  plane waves:     760
 k-point ** :  -0.3333 0.0556 0.1250  plane waves:     755
 k-point ** :  -0.2778 0.0556 0.1250  plane waves:     754
 k-point ** :  -0.2222 0.0556 0.1250  plane waves:     752
 k-point ** :  -0.1667 0.0556 0.1250  plane waves:     747
 k-point ** :  -0.1111 0.0556 0.1250  plane waves:     744
 k-point ** :  -0.0556 0.0556 0.1250  plane waves:     738
 k-point ** :   0.1111 0.1111 0.1250  plane waves:     744
 k-point ** :   0.1667 0.1111 0.1250  plane waves:     754
 k-point ** :   0.2222 0.1111 0.1250  plane waves:     757
 k-point ** :   0.2778 0.1111 0.1250  plane waves:     762
 k-point ** :   0.3333 0.1111 0.1250  plane waves:     765
 k-point ** :   0.3889 0.1111 0.1250  plane waves:     762
 k-point ** :   0.4444 0.1111 0.1250  plane waves:     769
 k-point ** :   0.5000 0.1111 0.1250  plane waves:     763
 k-point ** :  -0.4444 0.1111 0.1250  plane waves:     765
 k-point ** :  -0.3889 0.1111 0.1250  plane waves:     762
 k-point ** :  -0.3333 0.1111 0.1250  plane waves:     757
 k-point ** :  -0.2778 0.1111 0.1250  plane waves:     754
 k-point ** :  -0.2222 0.1111 0.1250  plane waves:     744
 k-point ** :  -0.1667 0.1111 0.1250  plane waves:     746
 k-point ** :  -0.1111 0.1111 0.1250  plane waves:     744
 k-point ** :   0.1667 0.1667 0.1250  plane waves:     753
 k-point ** :   0.2222 0.1667 0.1250  plane waves:     759
 k-point ** :   0.2778 0.1667 0.1250  plane waves:     766
 k-point ** :   0.3333 0.1667 0.1250  plane waves:     765
 k-point ** :   0.3889 0.1667 0.1250  plane waves:     765
 k-point ** :   0.4444 0.1667 0.1250  plane waves:     765
 k-point ** :   0.5000 0.1667 0.1250  plane waves:     765
 k-point ** :  -0.4444 0.1667 0.1250  plane waves:     766
 k-point ** :  -0.3889 0.1667 0.1250  plane waves:     759
 k-point ** :  -0.3333 0.1667 0.1250  plane waves:     753
 k-point ** :  -0.2778 0.1667 0.1250  plane waves:     753
 k-point ** :  -0.2222 0.1667 0.1250  plane waves:     752
 k-point ** :  -0.1667 0.1667 0.1250  plane waves:     751
 k-point ** :   0.2222 0.2222 0.1250  plane waves:     766
 k-point ** :   0.2778 0.2222 0.1250  plane waves:     767
 k-point ** :   0.3333 0.2222 0.1250  plane waves:     767
 k-point ** :   0.3889 0.2222 0.1250  plane waves:     765
 k-point ** :   0.4444 0.2222 0.1250  plane waves:     766
 k-point ** :   0.5000 0.2222 0.1250  plane waves:     767
 k-point ** :  -0.4444 0.2222 0.1250  plane waves:     766
 k-point ** :  -0.3889 0.2222 0.1250  plane waves:     760
 k-point ** :  -0.3333 0.2222 0.1250  plane waves:     757
 k-point ** :  -0.2778 0.2222 0.1250  plane waves:     754
 k-point ** :  -0.2222 0.2222 0.1250  plane waves:     752
 k-point ** :   0.2778 0.2778 0.1250  plane waves:     769
 k-point ** :   0.3333 0.2778 0.1250  plane waves:     769
[...]
 k-point ** :   0.3889 0.3333 0.5000  plane waves:     772
 k-point ** :   0.4444 0.3333 0.5000  plane waves:     766
 k-point ** :   0.5000 0.3333 0.5000  plane waves:     758
 k-point ** :  -0.4444 0.3333 0.5000  plane waves:     756
 k-point ** :  -0.3889 0.3333 0.5000  plane waves:     758
 k-point ** :  -0.3333 0.3333 0.5000  plane waves:     754
 k-point ** :   0.3889 0.3889 0.5000  plane waves:     762
 k-point ** :   0.4444 0.3889 0.5000  plane waves:     756
 k-point ** :   0.5000 0.3889 0.5000  plane waves:     762
 k-point ** :  -0.4444 0.3889 0.5000  plane waves:     760
 k-point ** :  -0.3889 0.3889 0.5000  plane waves:     764
 k-point ** :   0.4444 0.4444 0.5000  plane waves:     762
 k-point ** :   0.5000 0.4444 0.5000  plane waves:     754
 k-point ** :  -0.4444 0.4444 0.5000  plane waves:     756
 k-point ** :   0.5000 0.5000 0.5000  plane waves:     752

 maximum and minimum number of plane-waves per node :       272      231

 maximum number of plane-waves:       786
 maximum index in each direction:
   IXMAX=    5   IYMAX=    4   IZMAX=    8
   IXMIN=   -5   IYMIN=   -5   IZMIN=   -9

 WARNING: aliasing errors must be expected set NGX to  22 to avoid them
 NGY is ok and might be reduce to  20
 NGZ is ok and might be reduce to  36
 aliasing errors are usually negligible using standard VASP settings
 and one can safely disregard these warnings

 parallel 3D FFT for wavefunctions:
    minimum data exchange during FFTs selected (reduces bandwidth)
 parallel 3D FFT for charge:
    minimum data exchange during FFTs selected (reduces bandwidth)

 Broyden mixing: mesh for mixing (old mesh)
   NGX =  9   NGY =  9   NGZ = 17
  (NGX  = 40   NGY  = 40   NGZ  = 72)
  gives a total of   1377 points

 initial charge density was supplied:
 charge density of overlapping atoms calculated
 number of electron      16.0000000 magnetization
 keeping initial charge density in first step

 Maximum index for augmentation-charges         1373 (set IRDMAX)

 First call to EWALD:  gamma=   0.626
 Maximum number of real-space cells 3x 3x 2
 Maximum number of reciprocal cells 2x 2x 4

 FEWALD executed in parallel

----------------------------------------- Iteration    1(   1)  ---------------------------------------

 BZINTS: Fermi energy: 18.955291; 16.000000 electrons
         Band energy:  60.441001;  BLOECHL correction: -0.577153

 eigenvalue-minimisations  : 10944
 total energy-change (2. order) : 0.3830508E+02  (-0.9564163E+03)
 number of electron      16.0000000 magnetization
 augmentation part       16.0000000 magnetization

 Free energy of the ion-electron system (eV)
  alpha Z        PSCENC =        57.43211099
  Ewald energy   TEWEN  =      -681.47995614
  -Hartree energ DENC   =       -39.54729992
  -exchange      EXHF   =         0.00000000
  -V(xc)+E(xc)   XCENC  =        57.45999243
  PAW double counting   =       151.32577238     -155.92769107
  entropy T*S    EENTRO =         0.00000000
  eigenvalues    EBANDS =        60.44100103
  atomic energy  EATOM  =       588.60115103
  free energy    TOTEN  =        38.30508072 eV

  energy without entropy =       38.30508072  energy(sigma->0) =       38.30508072

[...]

 eigenvalue-minimisations  : 15104
 total energy-change (2. order) :-0.7126234E+02  (-0.6501703E+02)
 number of electron      16.0000000 magnetization
 augmentation part       16.0000000 magnetization

[...]

 Broyden mixing:
  rms(total) = 0.77637E+00    rms(broyden)= 0.77628E+00
  rms(prec ) = 0.15671E+01
  weight for this iteration     100.00

[...]

 eigenvalues of (default mixing * dielectric matrix)
  average eigenvalue GAMMA=   2.0546
  2.0546

[...]

 eigenvalue-minimisations  : 12484
 total energy-change (2. order) :-0.7153832E-05  (-0.5489304E-06)
 number of electron      15.9999999 magnetization
 augmentation part        0.3902628 magnetization

 Broyden mixing:
  rms(total) = 0.81858E-04    rms(broyden)= 0.81812E-04
  rms(prec ) = 0.13120E-03
  weight for this iteration     100.00

 eigenvalues of (default mixing * dielectric matrix)
  average eigenvalue GAMMA=   1.7798
  2.8088  2.4637  1.9767  0.9576  1.1047  1.3675

[...]

----------------------------------------- Iteration    1(  12)  ---------------------------------------

 BZINTS: Fermi energy: 10.051842; 16.000000 electrons
         Band energy:   6.970156;  BLOECHL correction: -0.012137

 eigenvalue-minimisations  :  7628
 total energy-change (2. order) : 0.3804818E-06  (-0.4231510E-08)
 number of electron      15.9999999 magnetization
 augmentation part        0.3902628 magnetization

 Free energy of the ion-electron system (eV)
  alpha Z        PSCENC =        57.43211099
  Ewald energy   TEWEN  =      -681.47995614
  -Hartree energ DENC   =       -59.28158977
  -exchange      EXHF   =         0.00000000
  -V(xc)+E(xc)   XCENC  =        59.24864858
  PAW double counting   =       285.26956168     -290.48704081
  entropy T*S    EENTRO =         0.00000000
  eigenvalues    EBANDS =         6.97015569
  atomic energy  EATOM  =       588.60115103
  free energy    TOTEN  =       -33.72695876 eV

  energy without entropy =      -33.72695876  energy(sigma->0) =      -33.72695876

 average (electrostatic) potential at core
  the test charge radii are     0.6991
  (the norm of the test charge is              1.0000)
       1 -45.8506       2 -45.8506       3 -45.3831       4 -45.3831

 E-fermi :  10.0518     XC(G=0): -13.2360     alpha+bet :-17.6902

 k-point     1 :       0.0000    0.0000    0.0000
  band No.  band energies     occupation
      1     -12.0131      2.00000
      2      -7.8404      2.00000
      3      -2.1159      2.00000
      4       6.1875      2.00000
      5       6.2138      2.00000
      6       6.9023      2.00000
      7       6.9075      2.00000
      8       9.0488      2.00000
      9      17.3564      0.00000
     10      17.3778      0.00000
     11      18.4126      0.00000
     12      18.4245      0.00000

[...]

 k-point   455 :       0.5000    0.5000    0.5000
  band No.  band energies     occupation
      1      -5.1020      2.00000
      2      -5.1020      2.00000
      3      -4.0552      2.00000
      4      -4.0552      2.00000
      5       3.1379      2.00000
      6       3.1379      2.00000
      7       7.9573      2.00000
      8       7.9573      2.00000
      9      11.4067      0.00000
     10      11.4067      0.00000
     11      16.9655      0.00000
     12      16.9655      0.00000

 soft charge-density along one line, spin component           1
         0         1         2         3         4         5         6         7         8         9
 total charge-density along one line

------------------------ aborting loop because EDIFF is reached ----------------------------------------

         DFTD3 V3.0 Rev 1
 IVDW         = 12
 DF pbe
 parameters
 VDW_S6       =    1.0000
 VDW_S8       =    0.7875
 VDW_A1       =    0.4289
 VDW_A2       =    4.4407
 k1-k3        =   16.0000    1.3333   -4.0000
 VDW_RADIUS   =   50.2022 A
 VDW_CNRADIUS =   21.1671 A
 Edisp (eV)   -0.79951

 E6    (eV) :    -0.5693
 E8    (eV) :    -0.2302
 % E8        : 28.79

  FORCE on cell =-STRESS in cart. coord.  units (eV):
  Direction    XX          YY          ZZ          XY          YZ          ZX
  Alpha Z    57.43211    57.43211    57.43211
  Ewald    -140.30897  -140.42076  -400.75063    -0.09681    -0.00000     0.00000
  Hartree    37.68483    37.66335   -16.06618    -0.01860    -0.00000    -0.00000
  E(xc)     -59.96580   -59.96659   -60.89904    -0.00068     0.00000    -0.00000
  Local    -123.56331  -123.44383   163.54324     0.10347    -0.00000    -0.00000
  n-local   -14.05325   -13.07921   -14.85848    -0.29814    -0.01676     0.06498
  augment    -1.59337    -1.59325    -1.45128     0.00010    -0.00000     0.00000
  Kinetic   247.51114   240.70537   292.44626     2.06231     0.14919    -0.63946
  Fock        0.00000     0.00000     0.00000     0.00000     0.00000     0.00000
  vdW        -0.24781    -0.24681    -0.09478     0.00087     0.00000    -0.00000
  Total      -0.05525     0.00120    19.30122     0.04888     0.00000    -0.00000
  in kB      -3.89931     0.08454  1362.31716     3.45012     0.00000    -0.00000

 VOLUME and BASIS-vectors are now :
  energy-cutoff  :      600.00
  volume of cell :       22.70
      direct lattice vectors                 reciprocal lattice vectors
     2.466437249 -0.000959643  0.000000000     0.405534294  0.234345762  0.000000000
    -1.234049700  2.135517493  0.000000000     0.000182236  0.468375882  0.000000000
     0.000000000  0.000000000  4.310637973     0.000000000  0.000000000  0.231984223

  length of vectors
     2.466437436  2.466437436  4.310637973     0.468375917  0.468375917  0.231984223

 FORCES acting on ions
    electron-ion (+dipol)            ewald-force                    non-local-force                 convergence-correction
   -.893E-01 0.515E-01 0.494E-12   0.805E-01 -.465E-01 -.109E-13   -.990E-02 0.571E-02 -.208E-16   -.315E-05 0.182E-05 -.118E-13
   0.893E-01 -.516E-01 0.221E-12   -.806E-01 0.465E-01 0.109E-13   0.990E-02 -.571E-02 0.347E-16   0.315E-05 -.182E-05 0.876E-14
   0.734E-01 -.424E-01 0.869E-12   -.637E-01 0.368E-01 -.108E-13   0.820E-02 -.474E-02 -.139E-16   0.422E-05 -.244E-05 -.133E-13
   -.734E-01 0.424E-01 -.402E-12   0.638E-01 -.368E-01 0.108E-13   -.820E-02 0.474E-02 0.278E-16   -.422E-05 0.244E-05 0.894E-14
   -.707E-05 -.123E-04 0.118E-11   0.368E-14 -.289E-14 0.000E+00   0.000E+00 -.555E-16 0.278E-16   0.277E-10 0.480E-10 -.740E-14

 POSITION                                       TOTAL-FORCE (eV/Angst)
      2.46402      0.00044      1.07766        -0.018630      0.010756     -0.000000
     -1.23163      2.13412      3.23298         0.018630     -0.010756     -0.000000
     -0.00332      1.42496      1.07766         0.018550     -0.010710      0.000000
      1.23571      0.70960      3.23298        -0.018550      0.010710      0.000000
    total drift:                               -0.000007     -0.000012      0.000000

  FREE ENERGIE OF THE ION-ELECTRON SYSTEM (eV)
  free  energy   TOTEN  =       -34.52647327 eV

  energy  without entropy=      -34.52647327  energy(sigma->0) =      -34.52647327

 reached required accuracy - stopping structural energy minimisation
 BZINTS: Fermi energy: 10.051842; 16.000000 electrons
         Band energy:   6.970156;  BLOECHL correction: -0.012137