 vasp.5.3.5 31Mar14 (build Nov 02 2014 15:17:37) complex

 executed on        ion-Intel-MKL date 2017.02.15  21:52:41

 INCAR:
 POTCAR:   PAW_PBE C 08Apr2002
 POTCAR:   PAW_PBE C 08Apr2002
   VRHFIN =C: s2p2

   TITEL  = PAW_PBE C 08Apr2002
   POMASS =   12.011; ZVAL   =    4.000    mass and valenz
   ENMAX  =  400.000; ENMIN  =  300.000 eV
   QCUT   =   -5.516; QGAM   =   11.032    optimization parameters

   Description
     l     E      TYP  RCUT    TYP  RCUT
     0   .000     23  1.200
     0   .000     23  1.200
     1   .000     23  1.500
     1  2.500     23  1.500
     2   .000      7  1.500

 PAW_PBE C 08Apr2002                    :

 POSCAR: C
  positions in direct lattice
 exchange correlation table for  LEXCH =        8
   RHO(1)=    0.500       N(1)  =     2000
   RHO(2)=  100.500       N(2)  =     4000

 ion  position               nearest neighbor table
   1  0.002  0.000  0.000-   9 1.58  11 1.59  13 1.59  10 1.60
   2  0.500  0.000  0.000-  10 1.59  12 1.59   9 1.59  14 1.59
   3  0.000  0.500  0.000-  11 1.59   9 1.59  12 1.59  15 1.59
   4  0.500  0.500  0.000-  12 1.59  10 1.59  11 1.59  16 1.59
   5  0.000  0.000  0.500-  13 1.59  15 1.59  14 1.59   9 1.59
   6  0.500  0.000  0.500-  14 1.59  16 1.59  13 1.59  10 1.59
   7  0.000  0.500  0.500-  15 1.59  13 1.59  16 1.59  11 1.59
   8  0.500  0.500  0.500-  16 1.59  14 1.59  15 1.59  12 1.59
   9  0.125  0.125  0.125-   1 1.58   3 1.59   2 1.59   5 1.59
  10  0.625  0.125  0.125-   2 1.59   4 1.59   6 1.59   1 1.60
  11  0.125  0.625  0.125-   3 1.59   4 1.59   7 1.59   1 1.59
  12  0.625  0.625  0.125-   4 1.59   2 1.59   3 1.59   8 1.59
  13  0.125  0.125  0.625-   5 1.59   7 1.59   6 1.59   1 1.59
  14  0.625  0.125  0.625-   6 1.59   8 1.59   5 1.59   2 1.59
  15  0.125  0.625  0.625-   7 1.59   5 1.59   8 1.59   3 1.59
  16  0.625  0.625  0.625-   8 1.59   6 1.59   7 1.59   4 1.59

  LATTYP: Found a face centered cubic cell.
 ALAT       =     7.3503340960

  Lattice vectors:

 A1 = (   5.1974710834,   0.0000000000,   0.0000000000)
 A2 = (   2.5987355416,   4.5011419937,   0.0000000000)
 A3 = (   2.5987355416,   1.5003806645,   4.2437173689)

Analysis of symmetry for initial positions (statically):
 Subroutine PRICEL returns:
 Original cell was already a primitive cell.

 Routine SETGRP: Setting up the symmetry group for a
 face centered cubic supercell.

 Subroutine GETGRP returns: Found  2 space group operations
 (whereof  2 operations were pure point group operations)
 out of a pool of 48 trial point group operations.

The static configuration has the point symmetry C_1h.

Analysis of symmetry for dynamics (positions and initial velocities):
 Subroutine PRICEL returns:
 Original cell was already a primitive cell.

 Routine SETGRP: Setting up the symmetry group for a
 face centered cubic supercell.

 Subroutine GETGRP returns: Found  2 space group operations
 (whereof  2 operations were pure point group operations)
 out of a pool of 48 trial point group operations.

The dynamic configuration has the point symmetry C_1h.

 KPOINTS: B4C B11C-CBC

Automatic generation of k-mesh.
Space group operators:
 irot       det(A)        alpha          n_x          n_y          n_z        tau_x        tau_y        tau_z
    1     1.000000     0.000000     1.000000     0.000000     0.000000     0.000000     0.000000     0.000000
    2    -1.000000   180.000000     0.000000    -0.577350     0.816497     0.000000     0.000000     0.000000

 Subroutine IBZKPT returns following result:

 Found     72 irreducible k-points:

 Following reciprocal coordinates:
            Coordinates               Weight
  0.000000  0.000000  0.000000      1.000000
  0.166667 -0.000000 -0.000000      2.000000
  0.333333  0.000000  0.000000      2.000000
  0.500000  0.000000 -0.000000      1.000000
  0.000000  0.166667  0.000000      2.000000
  0.166667  0.166667  0.000000      2.000000
  0.333333  0.166667 -0.000000      2.000000
  0.500000  0.166667 -0.000000      2.000000
 -0.333333  0.166667  0.000000      2.000000
 -0.166667  0.166667  0.000000      2.000000
  0.000000  0.333333  0.000000      2.000000
  0.166667  0.333333 -0.000000      2.000000
  0.333333  0.333333  0.000000      2.000000
  0.500000  0.333333  0.000000      2.000000
 -0.333333  0.333333  0.000000      2.000000
 -0.166667  0.333333  0.000000      2.000000
  0.000000  0.500000 -0.000000      2.000000
  0.166667  0.500000 -0.000000      4.000000
  0.333333  0.500000  0.000000      4.000000
  0.500000  0.500000 -0.000000      2.000000
  0.000000  0.000000  0.250000      2.000000
  0.166667 -0.000000  0.250000      2.000000
  0.333333  0.000000  0.250000      2.000000
  0.500000  0.000000  0.250000      2.000000
 -0.333333 -0.000000  0.250000      2.000000
 -0.166667  0.000000  0.250000      2.000000
  0.000000  0.166667  0.250000      2.000000
  0.166667  0.166667  0.250000      2.000000
  0.333333  0.166667  0.250000      2.000000
  0.500000  0.166667  0.250000      2.000000
 -0.333333  0.166667  0.250000      2.000000
 -0.166667  0.166667  0.250000      2.000000
  0.000000  0.333333  0.250000      2.000000
  0.166667  0.333333  0.250000      2.000000
  0.333333  0.333333  0.250000      2.000000
  0.500000  0.333333  0.250000      2.000000
 -0.333333  0.333333  0.250000      2.000000
 -0.166667  0.333333  0.250000      2.000000
  0.000000  0.500000  0.250000      2.000000
  0.166667  0.500000  0.250000      2.000000
  0.333333  0.500000  0.250000      2.000000
  0.500000  0.500000  0.250000      2.000000
 -0.333333  0.500000  0.250000      2.000000
 -0.166667  0.500000  0.250000      2.000000
  0.000000 -0.333333  0.250000      2.000000
  0.166667 -0.333333  0.250000      2.000000
  0.333333 -0.333333  0.250000      2.000000
  0.500000 -0.333333  0.250000      2.000000
 -0.333333 -0.333333  0.250000      2.000000
 -0.166667 -0.333333  0.250000      2.000000
  0.000000 -0.166667  0.250000      2.000000
  0.166667 -0.166667  0.250000      2.000000
  0.333333 -0.166667  0.250000      2.000000
  0.500000 -0.166667  0.250000      2.000000
 -0.333333 -0.166667  0.250000      2.000000
 -0.166667 -0.166667  0.250000      2.000000
  0.000000  0.166667  0.500000      2.000000
  0.166667  0.166667  0.500000      2.000000
  0.333333  0.166667  0.500000      2.000000
  0.500000  0.166667  0.500000      2.000000
 -0.333333  0.166667  0.500000      2.000000
 -0.166667  0.166667  0.500000      2.000000
  0.000000  0.333333  0.500000      2.000000
  0.166667  0.333333  0.500000      2.000000
  0.333333  0.333333  0.500000      2.000000
  0.500000  0.333333  0.500000      2.000000
 -0.333333  0.333333  0.500000      2.000000
 -0.166667  0.333333  0.500000      2.000000
  0.000000  0.500000  0.500000      1.000000
  0.166667  0.500000  0.500000      2.000000
  0.333333  0.500000  0.500000      2.000000
  0.500000  0.500000  0.500000      1.000000

 Following cartesian coordinates:
            Coordinates               Weight
  0.000000  0.000000  0.000000      1.000000
  0.032067 -0.018514 -0.013091      2.000000
  0.064134 -0.037028 -0.026182      2.000000
  0.096201 -0.055541 -0.039274      1.000000
  0.000000  0.037028 -0.013091      2.000000
  0.032067  0.018514 -0.026182      2.000000
  0.064134  0.000000 -0.039274      2.000000
  0.096201 -0.018514 -0.052365      2.000000
 -0.064134  0.074055  0.013091      2.000000
 -0.032067  0.055541  0.000000      2.000000
  0.000000  0.074055 -0.026182      2.000000
  0.032067  0.055541 -0.039274      2.000000
  0.064134  0.037028 -0.052365      2.000000
  0.096201  0.018514 -0.065456      2.000000
 -0.064134  0.111083  0.000000      2.000000
 -0.032067  0.092569 -0.013091      2.000000
  0.000000  0.111083 -0.039274      2.000000
  0.032067  0.092569 -0.052365      4.000000
  0.064134  0.074055 -0.065456      4.000000
  0.096201  0.055541 -0.078547      2.000000
  0.000000  0.000000  0.058911      2.000000
  0.032067 -0.018514  0.045819      2.000000
  0.064134 -0.037028  0.032728      2.000000
  0.096201 -0.055541  0.019637      2.000000
 -0.064134  0.037028  0.085093      2.000000
 -0.032067  0.018514  0.072002      2.000000
  0.000000  0.037028  0.045819      2.000000
  0.032067  0.018514  0.032728      2.000000
  0.064134  0.000000  0.019637      2.000000
  0.096201 -0.018514  0.006546      2.000000
 -0.064134  0.074055  0.072002      2.000000
 -0.032067  0.055541  0.058911      2.000000
  0.000000  0.074055  0.032728      2.000000
  0.032067  0.055541  0.019637      2.000000
  0.064134  0.037028  0.006546      2.000000
  0.096201  0.018514 -0.006546      2.000000
 -0.064134  0.111083  0.058911      2.000000
 -0.032067  0.092569  0.045819      2.000000
  0.000000  0.111083  0.019637      2.000000
  0.032067  0.092569  0.006546      2.000000
  0.064134  0.074055 -0.006546      2.000000
  0.096201  0.055541 -0.019637      2.000000
 -0.064134  0.148111  0.045819      2.000000
 -0.032067  0.129597  0.032728      2.000000
  0.000000 -0.074055  0.085093      2.000000
  0.032067 -0.092569  0.072002      2.000000
  0.064134 -0.111083  0.058911      2.000000
  0.096201 -0.129597  0.045819      2.000000
 -0.064134 -0.037028  0.111276      2.000000
 -0.032067 -0.055541  0.098184      2.000000
  0.000000 -0.037028  0.072002      2.000000
  0.032067 -0.055541  0.058911      2.000000
  0.064134 -0.074055  0.045819      2.000000
  0.096201 -0.092569  0.032728      2.000000
 -0.064134 -0.000000  0.098184      2.000000
 -0.032067 -0.018514  0.085093      2.000000
  0.000000  0.037028  0.104730      2.000000
  0.032067  0.018514  0.091639      2.000000
  0.064134  0.000000  0.078547      2.000000
  0.096201 -0.018514  0.065456      2.000000
 -0.064134  0.074055  0.130912      2.000000
 -0.032067  0.055541  0.117821      2.000000
  0.000000  0.074055  0.091639      2.000000
  0.032067  0.055541  0.078547      2.000000
  0.064134  0.037028  0.065456      2.000000
  0.096201  0.018514  0.052365      2.000000
 -0.064134  0.111083  0.117821      2.000000
 -0.032067  0.092569  0.104730      2.000000
  0.000000  0.111083  0.078547      1.000000
  0.032067  0.092569  0.065456      2.000000
  0.064134  0.074055  0.052365      2.000000
  0.096201  0.055541  0.039274      1.000000

 TETIRR: Found    432 inequivalent tetrahedra from      864

 I would recommend the setting:
   dimension x,y,z NGX =    48 NGY =   48 NGZ =   48
 SYSTEM =  diamond
 POSCAR =  C

 Startparameter for this run:
   NWRITE =      2    write-flag & timer
   PREC   = accura    normal or accurate (medium, high low for compatibility)
   ISTART =      0    job   : 0-new  1-cont  2-samecut
   ICHARG =      2    charge: 1-file 2-atom 10-const
   ISPIN  =      1    spin polarized calculation?
   LNONCOLLINEAR =      F non collinear calculations
   LSORBIT =      F    spin-orbit coupling
   INIWAV =      1    electr: 0-lowe 1-rand  2-diag
   LASPH  =      F    aspherical Exc in radial PAW
   METAGGA=      F    non-selfconsistent MetaGGA calc.

 Electronic Relaxation 1
   ENCUT  =  800.0 eV  58.80 Ry    7.67 a.u.  11.99 11.99 11.99*2*pi/ulx,y,z
   ENINI  =  800.0     initial cutoff
   ENAUG  =  644.9 eV  augmentation charge cutoff
   NELM   =    200;   NELMIN=  2; NELMDL=  0     # of ELM steps
[...]
 k-point 27 :   0.0000 0.1667 0.2500  plane waves:    5077
 k-point 28 :   0.1667 0.1667 0.2500  plane waves:    5085
 k-point 29 :   0.3333 0.1667 0.2500  plane waves:    5093
 k-point 30 :   0.5000 0.1667 0.2500  plane waves:    5104
 k-point 31 :  -0.3333 0.1667 0.2500  plane waves:    5107
 k-point 32 :  -0.1667 0.1667 0.2500  plane waves:    5100
 k-point 33 :   0.0000 0.3333 0.2500  plane waves:    5084
 k-point 34 :   0.1667 0.3333 0.2500  plane waves:    5093
 k-point 35 :   0.3333 0.3333 0.2500  plane waves:    5096
 k-point 36 :   0.5000 0.3333 0.2500  plane waves:    5104
 k-point 37 :  -0.3333 0.3333 0.2500  plane waves:    5108
 k-point 38 :  -0.1667 0.3333 0.2500  plane waves:    5109
 k-point 39 :   0.0000 0.5000 0.2500  plane waves:    5107
 k-point 40 :   0.1667 0.5000 0.2500  plane waves:    5104
 k-point 41 :   0.3333 0.5000 0.2500  plane waves:    5104
 k-point 42 :   0.5000 0.5000 0.2500  plane waves:    5107
 k-point 43 :  -0.3333 0.5000 0.2500  plane waves:    5108
 k-point 44 :  -0.1667 0.5000 0.2500  plane waves:    5108
 k-point 45 :   0.0000-0.3333 0.2500  plane waves:    5109
 k-point 46 :   0.1667-0.3333 0.2500  plane waves:    5107
 k-point 47 :   0.3333-0.3333 0.2500  plane waves:    5108
 k-point 48 :   0.5000-0.3333 0.2500  plane waves:    5108
 k-point 49 :  -0.3333-0.3333 0.2500  plane waves:    5105
 k-point 50 :  -0.1667-0.3333 0.2500  plane waves:    5114
 k-point 51 :   0.0000-0.1667 0.2500  plane waves:    5096
 k-point 52 :   0.1667-0.1667 0.2500  plane waves:    5100
 k-point 53 :   0.3333-0.1667 0.2500  plane waves:    5109
 k-point 54 :   0.5000-0.1667 0.2500  plane waves:    5108
 k-point 55 :  -0.3333-0.1667 0.2500  plane waves:    5114
 k-point 56 :  -0.1667-0.1667 0.2500  plane waves:    5101
 k-point 57 :   0.0000 0.1667 0.5000  plane waves:    5116
 k-point 58 :   0.1667 0.1667 0.5000  plane waves:    5115
 k-point 59 :   0.3333 0.1667 0.5000  plane waves:    5116
 k-point 60 :   0.5000 0.1667 0.5000  plane waves:    5096
 k-point 61 :  -0.3333 0.1667 0.5000  plane waves:    5104
 k-point 62 :  -0.1667 0.1667 0.5000  plane waves:    5108
 k-point 63 :   0.0000 0.3333 0.5000  plane waves:    5096
 k-point 64 :   0.1667 0.3333 0.5000  plane waves:    5116
 k-point 65 :   0.3333 0.3333 0.5000  plane waves:    5115
 k-point 66 :   0.5000 0.3333 0.5000  plane waves:    5116
 k-point 67 :  -0.3333 0.3333 0.5000  plane waves:    5108
 k-point 68 :  -0.1667 0.3333 0.5000  plane waves:    5104
 k-point 69 :   0.0000 0.5000 0.5000  plane waves:    5104
 k-point 70 :   0.1667 0.5000 0.5000  plane waves:    5096
 k-point 71 :   0.3333 0.5000 0.5000  plane waves:    5116
 k-point 72 :   0.5000 0.5000 0.5000  plane waves:    5120

 maximum and minimum number of plane-waves per node :      5120     5029

 maximum number of plane-waves:      5120
 maximum index in each direction:
   IXMAX=   12   IYMAX=   12   IZMAX=   11
   IXMIN=  -12   IYMIN=  -12   IZMIN=  -12

 WARNING: aliasing errors must be expected set NGX to  50 to avoid them
 WARNING: aliasing errors must be expected set NGY to  50 to avoid them
 NGZ is ok and might be reduce to  48
 aliasing errors are usually negligible using standard VASP settings
 and one can safely disregard these warnings

 serial   3D FFT for wavefunctions
 parallel 3D FFT for charge:
    minimum data exchange during FFTs selected (reduces bandwidth)

 Broyden mixing: mesh for mixing (old mesh)
   NGX = 23   NGY = 23   NGZ = 23
  (NGX  = 96   NGY  = 96   NGZ  = 96)
  gives a total of  12167 points

 initial charge density was supplied:
 charge density of overlapping atoms calculated
 number of electron      64.0000000 magnetization
 keeping initial charge density in first step

 Maximum index for augmentation-charges        12754 (set IRDMAX)

 First call to EWALD:  gamma=   0.383
 Maximum number of real-space cells 3x 3x 3
 Maximum number of reciprocal cells 3x 3x 3

 FEWALD executed in parallel

----------------------------------------- Iteration    1(   1)  ---------------------------------------

 BZINTS: Fermi energy: 22.242048; 64.000000 electrons
         Band energy: 359.290318;  BLOECHL correction: -0.198389

 eigenvalue-minimisations  :  5904
 total energy-change (2. order) : 0.2710621E+03  (-0.4430645E+04)
 number of electron      64.0000000 magnetization
 augmentation part       64.0000000 magnetization

 Free energy of the ion-electron system (eV)
  alpha Z        PSCENC =       210.10220596
  Ewald energy   TEWEN  =     -2701.58427939
  -Hartree energ DENC   =      -157.14439587
  -exchange      EXHF   =         0.00000000
  -V(xc)+E(xc)   XCENC  =       224.33510925
  PAW double counting   =       605.30308954     -623.71076428
  entropy T*S    EENTRO =         0.00000000
  eigenvalues    EBANDS =       359.29031774
  atomic energy  EATOM  =      2354.47077523
  free energy    TOTEN  =       271.06205818 eV

  energy without entropy =      271.06205818  energy(sigma->0) =      271.06205818

[...]

 eigenvalue-minimisations  :  7539
 total energy-change (2. order) :-0.4010171E+03  (-0.3817352E+03)
 number of electron      64.0000000 magnetization
 augmentation part       64.0000000 magnetization

[...]

 Broyden mixing:
  rms(total) = 0.12083E+01    rms(broyden)= 0.12083E+01
  rms(prec ) = 0.24964E+01
  weight for this iteration     100.00

[...]

 eigenvalues of (default mixing * dielectric matrix)
  average eigenvalue GAMMA=   2.1956
  2.1956

[...]

 eigenvalue-minimisations  :  7191
 total energy-change (2. order) : 0.1993931E-07  (-0.4414445E-07)
 number of electron      63.9999997 magnetization
 augmentation part        1.3868041 magnetization

[...]

 Broyden mixing:
  rms(total) = 0.29721E-04    rms(broyden)= 0.29719E-04
  rms(prec ) = 0.53867E-04
  weight for this iteration     100.00

 eigenvalues of (default mixing * dielectric matrix)
  average eigenvalue GAMMA=   1.7996
  2.9766  2.5944  2.4096  2.0081  0.9780  0.9780  1.2262  1.2262

[...]

----------------------------------------- Iteration    1(  14)  ---------------------------------------

[...]

 eigenvalue-minimisations  :  4870
 total energy-change (2. order) :-0.3902642E-08  (-0.7946653E-09)
 number of electron      63.9999997 magnetization
 augmentation part        1.3867981 magnetization

 Free energy of the ion-electron system (eV)
  alpha Z        PSCENC =       210.10220596
  Ewald energy   TEWEN  =     -2701.58427939
  -Hartree energ DENC   =      -221.60416199
  -exchange      EXHF   =         0.00000000
  -V(xc)+E(xc)   XCENC  =       230.36627810
  PAW double counting   =       961.28895921     -981.21567031
  entropy T*S    EENTRO =         0.00000000
  eigenvalues    EBANDS =         3.47878366
  atomic energy  EATOM  =      2354.47077523
  free energy    TOTEN  =      -144.69710953 eV

  energy without entropy =     -144.69710953  energy(sigma->0) =     -144.69710953

 average (electrostatic) potential at core
  the test charge radii are     0.6991
  (the norm of the test charge is              1.0000)
       1 -46.6429       2 -46.6428       3 -46.6485       4 -46.6370       5 -46.6485
       6 -46.6370       7 -46.6427       8 -46.6428       9 -46.6501      10 -46.6354
      11 -46.6428      12 -46.6428      13 -46.6428      14 -46.6428      15 -46.6452
      16 -46.6403

 E-fermi :   8.5793     XC(G=0): -12.7787     alpha+bet :-16.1789

 k-point     1 :       0.0000    0.0000    0.0000
  band No.  band energies     occupation
      1     -11.8098      2.00000
      2      -6.5436      2.00000
      3      -6.5320      2.00000
      4      -6.5319      2.00000
      5      -6.5209      2.00000
      6      -3.9333      2.00000
      7      -3.9221      2.00000
      8      -3.9220      2.00000
      9      -3.9122      2.00000
     10      -3.6768      2.00000
     11      -3.6627      2.00000
     12      -3.6588      2.00000
     13      -3.6586      2.00000
     14      -3.6545      2.00000
     15      -3.6388      2.00000
     16       2.7120      2.00000
     17       2.7219      2.00000
     18       2.7226      2.00000
     19       2.7227      2.00000
     20       2.7234      2.00000
     21       2.7332      2.00000
     22       5.8904      2.00000
     23       5.9119      2.00000
     24       5.9186      2.00000
     25       5.9191      2.00000
     26       5.9216      2.00000
     27       5.9221      2.00000
     28       5.9290      2.00000
     29       5.9502      2.00000
     30       8.4786      2.00000
     31       8.4960      2.00000
     32       8.5139      2.00000
     33      13.0442      0.00000
     34      13.0557      0.00000
     35      13.0646      0.00000
     36      13.0647      0.00000
     37      13.0732      0.00000
     38      13.0837      0.00000
     39      13.8240      0.00000
     40      13.8397      0.00000
     41      13.8557      0.00000

[...]

 k-point    72 :       0.5000    0.5000    0.5000
  band No.  band energies     occupation
      1     -10.2097      2.00000
      2     -10.1944      2.00000
      3      -6.2231      2.00000
      4      -6.2063      2.00000
      5      -6.2050      2.00000
      6      -6.2021      2.00000
      7      -6.2014      2.00000
      8      -6.1873      2.00000
      9      -1.6777      2.00000
     10      -1.6732      2.00000
     11      -1.6727      2.00000
     12      -1.6678      2.00000
     13      -1.6658      2.00000
     14      -1.6478      2.00000
     15       2.1764      2.00000
     16       2.2113      2.00000
     17       2.2161      2.00000
     18       2.2212      2.00000
     19       2.2219      2.00000
     20       2.2241      2.00000
     21       2.3033      2.00000
     22       2.3150      2.00000
     23       4.0232      2.00000
     24       4.0244      2.00000
     25       4.0284      2.00000
     26       4.0344      2.00000
     27       4.0419      2.00000
     28       4.0573      2.00000
     29       6.8930      2.00000
     30       6.8936      2.00000
     31       6.8993      2.00000
     32       6.9258      2.00000
     33      14.2803      0.00000
     34      14.2841      0.00000
     35      14.2846      0.00000
     36      14.2864      0.00000
     37      14.3044      0.00000
     38      14.3086      0.00000
     39      15.8146      0.00000
     40      15.8378      0.00000
     41      15.8608      0.00000

 soft charge-density along one line, spin component           1
         0         1         2         3         4         5         6         7         8         9
 total charge-density along one line

------------------------ aborting loop because EDIFF is reached ----------------------------------------

         DFTD3 V3.0 Rev 1
 IVDW         = 12
 DF pbe
 parameters
 VDW_S6       =    1.0000
 VDW_S8       =    0.7875
 VDW_A1       =    0.4289
 VDW_A2       =    4.4407
 k1-k3        =   16.0000    1.3333   -4.0000
 VDW_RADIUS   =   50.2022 A
 VDW_CNRADIUS =   21.1671 A
 Edisp (eV)   -2.79980

 E6    (eV) :    -1.9922
 E8    (eV) :    -0.8076
 % E8        : 28.85

  FORCE on cell =-STRESS in cart. coord.  units (eV):
  Direction    XX          YY          ZZ          XY          YZ          ZX
  Alpha Z   210.10221   210.10221   210.10221
  Ewald    -900.53082  -900.52770  -900.53447     1.40074     0.00949     0.99047
  Hartree    73.86645    73.86911    73.86814     0.23066     0.00137     0.16310
  E(xc)    -234.63365  -234.63367  -234.63368     0.00492     0.00003     0.00348
  Local    -104.03994  -104.05211  -104.04308    -1.44037    -0.01272    -1.01849
  n-local   -49.24612   -49.04978   -49.44423     0.11098    -0.07095    -0.12688
  augment    -5.07221    -5.07216    -5.07218    -0.00074     0.00003    -0.00052
  Kinetic   989.92847   988.46949   991.39917    -1.05319     0.52458     1.03022
  Fock        0.00000     0.00000     0.00000     0.00000     0.00000     0.00000
  vdW        -2.76427    -2.76427    -2.76427    -0.00015     0.00000    -0.00011
  Total     -22.38989   -22.38955   -22.39171    -0.00725     0.00305    -0.00513
  in kB    -361.32776  -361.32229  -361.35709    -0.11703     0.04922    -0.08275

 VOLUME and BASIS-vectors are now :
  energy-cutoff  :      800.00
  volume of cell :       99.28
      direct lattice vectors                 reciprocal lattice vectors
     5.197471083  0.000000000  0.000000000     0.192401263 -0.111082921 -0.078547487
     2.598735542  4.501141994  0.000000000     0.000000000  0.222165842 -0.078547487
     2.598735542  1.500380665  4.243717369     0.000000000  0.000000000  0.235642460

  length of vectors
     5.197471083  5.197471083  5.197471083     0.235642460  0.235642460  0.235642460

 FORCES acting on ions
    electron-ion (+dipol)            ewald-force                    non-local-force                 convergence-correction
   0.127E+01 0.134E-01 0.944E-02   -.146E+01 -.158E-01 -.112E-01   -.190E+00 -.571E-03 -.404E-03   0.540E-04 0.957E-06 0.677E-06
   -.502E+00 0.209E-03 0.148E-03   0.533E+00 -.877E-06 -.247E-05   0.259E-01 -.183E-03 -.129E-03   -.603E-04 -.128E-05 -.907E-06
   -.591E-01 -.256E+00 -.263E-01   0.469E-01 0.281E+00 0.138E-01   0.133E-01 0.728E-02 0.198E-02   0.102E-05 -.364E-04 0.160E-04
   -.591E-01 0.256E+00 0.263E-01   0.469E-01 -.281E+00 -.138E-01   0.133E-01 -.725E-02 -.205E-02   0.590E-05 0.363E-04 -.180E-04
   -.591E-01 -.110E+00 -.232E+00   0.469E-01 0.107E+00 0.260E+00   0.133E-01 0.430E-02 0.620E-02   0.102E-05 0.293E-05 -.396E-04
   -.591E-01 0.110E+00 0.232E+00   0.469E-01 -.107E+00 -.260E+00   0.133E-01 -.435E-02 -.615E-02   0.590E-05 -.483E-05 0.403E-04
   0.131E+00 -.747E-04 -.528E-04   -.138E+00 -.877E-06 -.247E-05   0.580E-02 0.336E-04 0.238E-04   -.519E-05 0.325E-05 0.230E-05
   -.910E-01 0.667E-05 0.475E-05   0.972E-01 -.877E-06 -.247E-05   -.232E-02 0.126E-04 0.893E-05   0.287E-05 -.892E-06 -.631E-06
   -.580E+00 -.625E+00 -.442E+00   0.670E+00 0.666E+00 0.471E+00   0.672E-02 -.241E-01 -.171E-01   -.286E-06 -.148E-04 -.105E-04
   -.579E+00 0.615E+00 0.435E+00   0.667E+00 -.654E+00 -.462E+00   0.409E-02 0.248E-01 0.175E-01   0.654E-05 0.791E-05 0.559E-05
   0.494E+00 -.516E-02 0.192E-02   -.474E+00 0.519E-02 -.165E-02   0.478E-01 0.191E-03 -.114E-03   0.220E-04 0.521E-05 -.269E-05
   -.185E+00 0.126E-02 -.218E-03   0.176E+00 -.132E-02 0.250E-03   0.380E-02 0.129E-05 -.515E-05   -.274E-04 0.475E-06 -.138E-05
   0.494E+00 0.906E-04 -.549E-02   -.474E+00 0.175E-03 0.544E-02   0.478E-01 -.441E-04 0.219E-03   0.220E-04 -.804E-06 0.581E-05
   -.185E+00 0.208E-03 0.127E-02   0.176E+00 -.207E-03 -.133E-02   0.380E-02 -.443E-05 0.293E-05   -.274E-04 -.115E-05 0.909E-06
   -.175E-01 -.967E-01 -.684E-01   0.186E-01 0.904E-01 0.639E-01   -.318E-02 0.404E-02 0.286E-02   0.148E-05 -.165E-04 -.117E-04
   -.181E-01 0.967E-01 0.684E-01   0.192E-01 -.904E-01 -.639E-01   -.323E-02 -.405E-02 -.286E-02   0.353E-05 0.153E-04 0.108E-04
   0.522E-05 -.912E-04 -.168E-04   0.520E-14 0.560E-13 -.247E-13   0.514E-05 0.738E-04 0.522E-04   0.570E-05 -.430E-05 -.304E-05

 POSITION                                       TOTAL-FORCE (eV/Angst)
      0.01000      0.00000      0.00000        -0.373321     -0.003058     -0.002162
      2.59874      0.00000      0.00000         0.057470      0.000023      0.000016
      1.29937      2.25057      0.00000         0.001062      0.032514     -0.010473
      3.89810      2.25057      0.00000         0.001107     -0.032589      0.010388
      1.29937      0.75019      2.12186         0.001062      0.000964      0.034145
      3.89810      0.75019      2.12186         0.001107     -0.001069     -0.034188
      2.59874      3.00076      2.12186        -0.000678     -0.000040     -0.000028
      5.19747      3.00076      2.12186         0.003870      0.000017      0.000012
      1.29937      0.75019      0.53046         0.096538      0.016605      0.011741
      3.89810      0.75019      0.53046         0.091952     -0.013741     -0.009716
      2.59874      3.00076      0.53046         0.068014      0.000234      0.000155
      5.19747      3.00076      0.53046        -0.006005     -0.000058      0.000020
      2.59874      1.50038      2.65232         0.068014      0.000225      0.000169
      5.19747      1.50038      2.65232        -0.006005     -0.000001     -0.000062
      3.89810      3.75095      2.65232        -0.002103     -0.002274     -0.001608
      6.49684      3.75095      2.65232        -0.002081      0.002249      0.001590
    total drift:                                0.000016     -0.000022      0.000032

  FREE ENERGIE OF THE ION-ELECTRON SYSTEM (eV)
  free  energy   TOTEN  =      -147.49690550 eV

  energy  without entropy=     -147.49690550  energy(sigma->0) =     -147.49690550

 BZINTS: Fermi energy:  8.579333; 64.000000 electrons
         Band energy:   3.478784;  BLOECHL correction:  0.000000