 vasp.5.3.5 31Mar14 (build Nov 04 2014 22:34:45) complex

 executed on         atom-AMD-MKL date 2016.08.13  15:54:57

 INCAR:
 POTCAR:   PAW_PBE C 08Apr2002

 POTCAR:   PAW_PBE C 08Apr2002
   VRHFIN =C: s2p2

   TITEL  = PAW_PBE C 08Apr2002
   POMASS =   12.011; ZVAL   =    4.000    mass and valenz
   ENMAX  =  400.000; ENMIN  =  300.000 eV
   QCUT   =   -5.516; QGAM   =   11.032    optimization parameters

   Description
     l     E      TYP  RCUT    TYP  RCUT
     0   .000     23  1.200
     0   .000     23  1.200
     1   .000     23  1.500
     1  2.500     23  1.500
     2   .000      7  1.500

 PAW_PBE C 08Apr2002                    :

 POSCAR: C
  positions in direct lattice
 exchange correlation table for  LEXCH =        8
   RHO(1)=    0.500       N(1)  =     2000
   RHO(2)=  100.500       N(2)  =     4000

 ion  position               nearest neighbor table
   1  0.501  0.000  0.126-  20 1.42  18 1.42  19 1.43
   2  1.000  0.000  0.125-  19 1.42  17 1.42  20 1.42
   3  0.500  0.500  0.125-  18 1.42  20 1.42  17 1.42
   4  1.000  0.500  0.125-  17 1.42  19 1.42  18 1.42
   5  0.500  0.000  0.625-  24 1.42  22 1.42  23 1.42
   6  1.000  0.000  0.625-  23 1.42  21 1.42  24 1.42
   7  0.500  0.500  0.625-  22 1.42  24 1.42  21 1.42
   8  1.000  0.500  0.625-  21 1.42  23 1.42  22 1.42
   9  0.000  0.500  0.375-  28 1.42  27 1.42  26 1.42
  10  0.500  0.500  0.375-  27 1.42  28 1.42  25 1.42
  11  0.000  1.000  0.375-  26 1.42  25 1.42  28 1.42
  12  0.500  1.000  0.375-  25 1.42  26 1.42  27 1.42
  13  0.000  0.500  0.875-  32 1.42  31 1.42  30 1.42
  14  0.500  0.500  0.875-  31 1.42  32 1.42  29 1.42
  15  0.000  1.000  0.875-  30 1.42  29 1.42  32 1.42
  16  0.500  1.000  0.875-  29 1.42  30 1.42  31 1.42
  17  0.167  0.333  0.125-   4 1.42   2 1.42   3 1.42
  18  0.667  0.333  0.125-   3 1.42   4 1.42   1 1.42
  19  0.167  0.833  0.125-   2 1.42   4 1.42   1 1.43
  20  0.667  0.833  0.125-   1 1.42   3 1.42   2 1.42
  21  0.167  0.333  0.625-   8 1.42   6 1.42   7 1.42
  22  0.667  0.333  0.625-   7 1.42   5 1.42   8 1.42
  23  0.167  0.833  0.625-   6 1.42   8 1.42   5 1.42
  24  0.667  0.833  0.625-   5 1.42   7 1.42   6 1.42
  25  0.333  0.167  0.375-  12 1.42  11 1.42  10 1.42
  26  0.833  0.167  0.375-  11 1.42  12 1.42   9 1.42
  27  0.333  0.667  0.375-  10 1.42   9 1.42  12 1.42
  28  0.833  0.667  0.375-   9 1.42  10 1.42  11 1.42
  29  0.333  0.167  0.875-  16 1.42  15 1.42  14 1.42
  30  0.833  0.167  0.875-  15 1.42  16 1.42  13 1.42
  31  0.333  0.667  0.875-  14 1.42  13 1.42  16 1.42
  32  0.833  0.667  0.875-  13 1.42  14 1.42  15 1.42

  LATTYP: Found a base centered orthorhombic cell.
 ALAT       =     4.9339256766
 B/A-ratio  =     1.7322311103
 C/A-ratio  =     2.9989574343

  Lattice vectors:

 A1 = (   4.9343108848,  -0.0002224000,   0.0000000000)
 A2 = (  -2.4673480464,   4.2731273763,   0.0000000000)
 A3 = (   0.0000000000,   0.0000000000,  14.7966330880)

Analysis of symmetry for initial positions (statically):
 Subroutine PRICEL returns:
 Original cell was already a primitive cell.

 Routine SETGRP: Setting up the symmetry group for a
 base centered orthorhombic supercell.

 Subroutine GETGRP returns: Found  1 space group operations
 (whereof  1 operations were pure point group operations)
 out of a pool of  8 trial point group operations.

The static configuration has the point symmetry C_1 .

Analysis of symmetry for dynamics (positions and initial velocities):
 Subroutine PRICEL returns:
 Original cell was already a primitive cell.

 Routine SETGRP: Setting up the symmetry group for a
 base centered orthorhombic supercell.

 Subroutine GETGRP returns: Found  1 space group operations
 (whereof  1 operations were pure point group operations)
 out of a pool of  8 trial point group operations.

The dynamic configuration has the point symmetry C_1 .

 KPOINTS: B4C B11C-CBC

Automatic generation of k-mesh.
Space group operators:
 irot       det(A)        alpha          n_x          n_y          n_z        tau_x        tau_y        tau_z
    1     1.000000     0.000000     1.000000     0.000000     0.000000     0.000000     0.000000     0.000000

 Subroutine IBZKPT returns following result:

 Found    163 irreducible k-points:

 Following reciprocal coordinates:
            Coordinates               Weight
  0.000000  0.000000  0.000000      1.000000
  0.111111  0.000000  0.000000      2.000000
  0.222222 -0.000000  0.000000      2.000000
  0.333333  0.000000  0.000000      2.000000
  0.444444 -0.000000  0.000000      2.000000
  0.000000  0.111111  0.000000      2.000000
  0.111111  0.111111  0.000000      2.000000
  0.222222  0.111111  0.000000      2.000000
  0.333333  0.111111  0.000000      2.000000
  0.444444  0.111111  0.000000      2.000000
 -0.444444  0.111111  0.000000      2.000000
 -0.333333  0.111111  0.000000      2.000000
 -0.222222  0.111111  0.000000      2.000000
 -0.111111  0.111111  0.000000      2.000000
 -0.000000  0.222222  0.000000      2.000000
  0.111111  0.222222  0.000000      2.000000
  0.222222  0.222222  0.000000      2.000000
  0.333333  0.222222  0.000000      2.000000
  0.444444  0.222222  0.000000      2.000000
 -0.444444  0.222222  0.000000      2.000000
 -0.333333  0.222222  0.000000      2.000000
 -0.222222  0.222222  0.000000      2.000000
 -0.111111  0.222222  0.000000      2.000000
  0.000000  0.333333  0.000000      2.000000
  0.111111  0.333333  0.000000      2.000000
  0.222222  0.333333  0.000000      2.000000
  0.333333  0.333333  0.000000      2.000000
  0.444444  0.333333  0.000000      2.000000
 -0.444444  0.333333  0.000000      2.000000
 -0.333333  0.333333  0.000000      2.000000
 -0.222222  0.333333  0.000000      2.000000
 -0.111111  0.333333  0.000000      2.000000
 -0.000000  0.444444  0.000000      2.000000
  0.111111  0.444444  0.000000      2.000000
  0.222222  0.444444  0.000000      2.000000
  0.333333  0.444444  0.000000      2.000000
  0.444444  0.444444  0.000000      2.000000
 -0.444444  0.444444  0.000000      2.000000
 -0.333333  0.444444  0.000000      2.000000
 -0.222222  0.444444  0.000000      2.000000
 -0.111111  0.444444  0.000000      2.000000
  0.000000  0.000000  0.250000      2.000000
  0.111111  0.000000  0.250000      2.000000
  0.222222 -0.000000  0.250000      2.000000
  0.333333  0.000000  0.250000      2.000000
  0.444444 -0.000000  0.250000      2.000000
 -0.444444  0.000000  0.250000      2.000000
 -0.333333 -0.000000  0.250000      2.000000
 -0.222222  0.000000  0.250000      2.000000
 -0.111111  0.000000  0.250000      2.000000
  0.000000  0.111111  0.250000      2.000000
  0.111111  0.111111  0.250000      2.000000
  0.222222  0.111111  0.250000      2.000000
  0.333333  0.111111  0.250000      2.000000
  0.444444  0.111111  0.250000      2.000000
 -0.444444  0.111111  0.250000      2.000000
 -0.333333  0.111111  0.250000      2.000000
 -0.222222  0.111111  0.250000      2.000000
 -0.111111  0.111111  0.250000      2.000000
 -0.000000  0.222222  0.250000      2.000000
[...]
  0.333333  0.333333  0.500000      2.000000
  0.444444  0.333333  0.500000      2.000000
 -0.444444  0.333333  0.500000      2.000000
 -0.333333  0.333333  0.500000      2.000000
 -0.222222  0.333333  0.500000      2.000000
 -0.111111  0.333333  0.500000      2.000000
 -0.000000  0.444444  0.500000      2.000000
  0.111111  0.444444  0.500000      2.000000
  0.222222  0.444444  0.500000      2.000000
  0.333333  0.444444  0.500000      2.000000
  0.444444  0.444444  0.500000      2.000000
 -0.444444  0.444444  0.500000      2.000000
 -0.333333  0.444444  0.500000      2.000000
 -0.222222  0.444444  0.500000      2.000000
 -0.111111  0.444444  0.500000      2.000000

 Following cartesian coordinates:
            Coordinates               Weight
  0.000000  0.000000  0.000000      1.000000
  0.022519  0.013002  0.000000      2.000000
  0.045037  0.026005  0.000000      2.000000
  0.067556  0.039007  0.000000      2.000000
  0.090075  0.052010  0.000000      2.000000
  0.000001  0.026003  0.000000      2.000000
  0.022520  0.039005  0.000000      2.000000
  0.045038  0.052008  0.000000      2.000000
  0.067557  0.065010  0.000000      2.000000
  0.090076  0.078013  0.000000      2.000000
 -0.090073 -0.026007  0.000000      2.000000
 -0.067555 -0.013005  0.000000      2.000000
 -0.045036 -0.000002  0.000000      2.000000
 -0.022517  0.013000  0.000000      2.000000
  0.000002  0.052006  0.000000      2.000000
  0.022521  0.065008  0.000000      2.000000
  0.045040  0.078011  0.000000      2.000000
  0.067558  0.091013  0.000000      2.000000
  0.090077  0.104016  0.000000      2.000000
 -0.090072 -0.000004  0.000000      2.000000
 -0.067554  0.012998  0.000000      2.000000
 -0.045035  0.026001  0.000000      2.000000
 -0.022516  0.039003  0.000000      2.000000
  0.000004  0.078009  0.000000      2.000000
  0.022522  0.091011  0.000000      2.000000
  0.045041  0.104014  0.000000      2.000000
  0.067559  0.117016  0.000000      2.000000
  0.090078  0.130019  0.000000      2.000000
 -0.090071  0.025999  0.000000      2.000000
 -0.067552  0.039001  0.000000      2.000000
 -0.045034  0.052004  0.000000      2.000000
 -0.022515  0.065006  0.000000      2.000000
  0.000005  0.104012  0.000000      2.000000
  0.022523  0.117014  0.000000      2.000000
  0.045042  0.130017  0.000000      2.000000
  0.067561  0.143019  0.000000      2.000000
  0.090079  0.156022  0.000000      2.000000
 -0.090070  0.052002  0.000000      2.000000
 -0.067551  0.065004  0.000000      2.000000
 -0.045033  0.078007  0.000000      2.000000
 -0.022514  0.091009  0.000000      2.000000
  0.000000  0.000000  0.016896      2.000000
  0.022519  0.013002  0.016896      2.000000
  0.045037  0.026005  0.016896      2.000000
  0.067556  0.039007  0.016896      2.000000
  0.090075  0.052010  0.016896      2.000000
 -0.090075 -0.052010  0.016896      2.000000
 -0.067556 -0.039007  0.016896      2.000000
 -0.045037 -0.026005  0.016896      2.000000
 -0.022519 -0.013002  0.016896      2.000000
  0.000001  0.026003  0.016896      2.000000
  0.022520  0.039005  0.016896      2.000000
  0.045038  0.052008  0.016896      2.000000
  0.067557  0.065010  0.016896      2.000000
  0.090076  0.078013  0.016896      2.000000
 -0.090073 -0.026007  0.016896      2.000000
 -0.067555 -0.013005  0.016896      2.000000
 -0.045036 -0.000002  0.016896      2.000000
 -0.022517  0.013000  0.016896      2.000000
  0.000002  0.052006  0.016896      2.000000
[...]
  0.067559  0.117016  0.033791      2.000000
  0.090078  0.130019  0.033791      2.000000
 -0.090071  0.025999  0.033791      2.000000
 -0.067552  0.039001  0.033791      2.000000
 -0.045034  0.052004  0.033791      2.000000
 -0.022515  0.065006  0.033791      2.000000
  0.000005  0.104012  0.033791      2.000000
  0.022523  0.117014  0.033791      2.000000
  0.045042  0.130017  0.033791      2.000000
  0.067561  0.143019  0.033791      2.000000
  0.090079  0.156022  0.033791      2.000000
 -0.090070  0.052002  0.033791      2.000000
 -0.067551  0.065004  0.033791      2.000000
 -0.045033  0.078007  0.033791      2.000000
 -0.022514  0.091009  0.033791      2.000000

[...]

[...]

 eigenvalue-minimisations  : 19668
 total energy-change (2. order) :-0.5900329E-06  (-0.1413839E-06)
 number of electron     128.0000010 magnetization
 augmentation part        3.0637040 magnetization

 Free energy of the ion-electron system (eV)
  alpha Z        PSCENC =       267.44094719
  Ewald energy   TEWEN  =     -3181.99729394
  -Hartree energ DENC   =     -1835.01993618
  -exchange      EXHF   =         0.00000000
  -V(xc)+E(xc)   XCENC  =       460.45537393
  PAW double counting   =      2218.44562453    -2259.75039125
  entropy T*S    EENTRO =         0.00000000
  eigenvalues    EBANDS =      -673.42329230
  atomic energy  EATOM  =      4708.80920826
  free energy    TOTEN  =      -295.03975976 eV

  energy without entropy =     -295.03975976  energy(sigma->0) =     -295.03975976

 average (electrostatic) potential at core
  the test charge radii are     0.6991
  (the norm of the test charge is              1.0000)
       1 -51.5659       2 -51.5659       3 -51.5674       4 -51.5644       5 -51.5645
       6 -51.5645       7 -51.5645       8 -51.5645       9 -51.5645      10 -51.5645
      11 -51.5645      12 -51.5645      13 -51.5643      14 -51.5643      15 -51.5643
      16 -51.5643      17 -51.5559      18 -51.5560      19 -51.5557      20 -51.5562
      21 -51.5543      22 -51.5543      23 -51.5543      24 -51.5543      25 -51.5537
      26 -51.5537      27 -51.5537      28 -51.5538      29 -51.5538      30 -51.5538
      31 -51.5538      32 -51.5538

 E-fermi :   3.8564     XC(G=0):  -9.6324     alpha+bet :-10.2971

 k-point     1 :       0.0000    0.0000    0.0000
  band No.  band energies     occupation
      1     -15.6996      2.00000
      2     -15.6337      2.00000
      3     -15.6328      2.00000
      4     -15.5645      2.00000
      5     -10.4238      2.00000
      6     -10.4218      2.00000
      7     -10.4201      2.00000
      8     -10.4005      2.00000
      9     -10.3971      2.00000
     10     -10.3966      2.00000
     11     -10.3958      2.00000
     12     -10.3958      2.00000
     13     -10.3934      2.00000
     14     -10.3749      2.00000
     15     -10.3737      2.00000
     16     -10.3713      2.00000
     17      -9.3687      2.00000
     18      -9.3652      2.00000
     19      -9.3634      2.00000
     20      -9.3528      2.00000
     21      -9.3490      2.00000
     22      -9.3485      2.00000
     23      -9.3475      2.00000
     24      -9.3474      2.00000
     25      -9.3449      2.00000
     26      -9.3302      2.00000
     27      -9.3277      2.00000
     28      -9.3257      2.00000
     29      -4.2915      2.00000
     30      -3.7551      2.00000
     31      -3.7538      2.00000
     32      -3.1298      2.00000
     33      -2.5447      2.00000
     34      -2.5413      2.00000
     35      -2.5375      2.00000
     36      -2.5346      2.00000
     37      -2.5312      2.00000
     38      -2.5308      2.00000
     39      -2.5308      2.00000
     40      -2.5277      2.00000
     41      -2.5259      2.00000
     42      -2.5220      2.00000
     43      -2.5205      2.00000
     44      -2.5160      2.00000
     45       0.8277      2.00000
     46       0.8391      2.00000
     47       0.8413      2.00000
     48       0.8434      2.00000
     49       0.8437      2.00000
     50       0.8461      2.00000
     51       0.8479      2.00000
     52       0.8561      2.00000
     53       1.2871      2.00000
     54       1.2887      2.00000
     55       1.2903      2.00000
     56       1.4973      2.00000
     57       1.5010      2.00000
     58       1.5017      2.00000
     59       1.5018      2.00000
     60       1.5019      2.00000
[...]
     70       5.5215      0.00000
     71       5.5224      0.00000
     72       5.5226      0.00000
     73       5.5265      0.00000
     74       5.8162      0.00000
     75       5.8205      0.00000
     76       5.8227      0.00000
     77       7.5046      0.00000
     78       9.4620      0.00000
     79       9.4645      0.00000
     80      11.1370      0.00000
     81      11.1432      0.00000
     82      11.1461      0.00000
     83      11.2294      0.00000
     84      11.2340      0.00000

[...]

 k-point   163 :      -0.1111    0.4444    0.5000
  band No.  band energies     occupation
      1     -14.7343      2.00000
      2     -14.7336      2.00000
      3     -14.6450      2.00000
      4     -14.6443      2.00000
      5     -13.4429      2.00000
      6     -13.4422      2.00000
      7     -13.3617      2.00000
      8     -13.3611      2.00000
      9     -12.1844      2.00000
     10     -12.1837      2.00000
     11     -12.1113      2.00000
     12     -12.1106      2.00000
     13     -10.4007      2.00000
     14     -10.3999      2.00000
     15     -10.3413      2.00000
     16     -10.3405      2.00000
     17      -7.9232      2.00000
     18      -7.9223      2.00000
     19      -7.8827      2.00000
     20      -7.8818      2.00000
     21      -6.2685      2.00000
     22      -6.2663      2.00000
     23      -6.2327      2.00000
     24      -6.2308      2.00000
     25      -5.2743      2.00000
     26      -5.2720      2.00000
     27      -5.2454      2.00000
     28      -5.2434      2.00000
     29      -5.0175      2.00000
     30      -5.0171      2.00000
     31      -4.9826      2.00000
     32      -4.9823      2.00000
     33      -3.8340      2.00000
     34      -3.8330      2.00000
     35      -3.8113      2.00000
     36      -3.8103      2.00000
     37      -3.0074      2.00000
     38      -3.0065      2.00000
     39      -2.2274      2.00000
     40      -2.2267      2.00000
     41      -2.1723      2.00000
     42      -2.1700      2.00000
     43      -2.1527      2.00000
     44      -2.1509      2.00000
     45      -1.9183      2.00000
     46      -1.9172      2.00000
     47      -1.9033      2.00000
     48      -1.9025      2.00000
     49      -1.4951      2.00000
     50      -1.4941      2.00000
     51      -0.7911      2.00000
     52      -0.7904      2.00000
     53      -0.7800      2.00000
     54      -0.7798      2.00000
     55      -0.7778      2.00000
     56      -0.7774      2.00000
     57      -0.0574      2.00000
     58      -0.0566      2.00000
     59       0.5825      2.00000
     60       0.5831      2.00000
[...]
     70       7.4884      0.00000
     71       7.7551      0.00000
     72       7.7569      0.00000
     73       9.2158      0.00000
     74       9.2176      0.00000
     75       9.3246      0.00000
     76       9.3269      0.00000
     77       9.6321      0.00000
     78       9.6333      0.00000
     79      10.8427      0.00000
     80      10.8462      0.00000
     81      11.9313      0.00000
     82      11.9329      0.00000
     83      12.0886      0.00000
     84      12.0901      0.00000

 soft charge-density along one line, spin component           1
         0         1         2         3         4         5         6         7         8         9
 total charge-density along one line

------------------------ aborting loop because EDIFF is reached ----------------------------------------

         DFTD3 V3.0 Rev 1
 IVDW         = 11
 DF pbe
 parameters
 VDW_S6       =    1.0000
 VDW_S8       =    0.7220
 VDW_SR       =    1.2170
 rs18     =    1.0000
 alpha6   =   14.0000
 alpha8   =   16.0000
 k1-k3    =   16.0000    1.3333   -4.0000
 VDW_RADIUS   =   50.2022 A
 VDW_CNRADIUS =   21.1671 A
 Edisp (eV)   -2.66456

 E6    (eV) :    -1.7743
 E8    (eV) :    -0.8903
 % E8        : 33.41

  FORCE on cell =-STRESS in cart. coord.  units (eV):
  Direction    XX          YY          ZZ          XY          YZ          ZX
  Alpha Z   267.44095   267.44095   267.44095
  Ewald    1118.74513  1118.34691 -5419.11022    -1.03815     0.00004    -0.00759
  Hartree  1654.11716  1654.07054 -1473.16638    -0.13922    -0.00002    -0.00162
  E(xc)    -466.99052  -466.99267  -485.05969    -0.00462     0.00000    -0.00003
  Local   -4369.08531 -4368.71616  5025.79980     0.98492    -0.00001     0.00729
  n-local  -112.38689  -112.40201  -102.38725    -0.01754    -0.00002    -0.00011
  augment   -12.34776   -12.34709   -11.32098     0.00165     0.00000     0.00001
  Kinetic  1920.37839  1920.53109  2199.14480     0.25723     0.00043     0.00290
  Fock        0.00000     0.00000     0.00000     0.00000     0.00000     0.00000
  vdW        -0.54840    -0.54792    -4.04264     0.00057    -0.00000    -0.00001
  Total      -0.67726    -0.61636    -2.70160     0.04485     0.00044     0.00085
  in kB      -3.47811    -3.16533   -13.87421     0.23031     0.00226     0.00436

 VOLUME and BASIS-vectors are now :
  energy-cutoff  :      600.00
  volume of cell :      311.98
      direct lattice vectors                 reciprocal lattice vectors
     4.934310885 -0.000222400  0.000000000     0.202667819  0.117022500  0.000000000
    -2.467348046  4.273127376  0.000000000     0.000010548  0.234026730  0.000000000
     0.000000000  0.000000000 14.796633088     0.000000000  0.000000000  0.067582942

  length of vectors
     4.934310890  4.934310890 14.796633088     0.234026730  0.234026730  0.067582942

 FORCES acting on ions
    electron-ion (+dipol)            ewald-force                    non-local-force                 convergence-correction
   0.692E+00 -.213E-02 -.199E+01   -.799E+00 0.475E-02 0.204E+01   -.870E-01 0.129E-02 -.178E+00   0.139E-03 -.807E-05 -.110E-01
   -.179E+00 0.354E-03 0.410E+00   0.197E+00 0.150E-02 -.380E+00   0.161E-01 0.121E-02 -.239E-01   -.104E-03 -.958E-05 -.124E-01
   -.193E-01 0.926E-01 0.410E+00   0.146E-01 -.104E+00 -.380E+00   0.618E-02 -.456E-02 -.239E-01   0.676E-04 0.103E-03 -.124E-01
   -.194E-01 -.917E-01 0.410E+00   0.146E-01 0.107E+00 -.380E+00   0.626E-02 0.679E-02 -.238E-01   0.663E-04 -.101E-03 -.124E-01
   -.174E-02 0.411E-03 -.101E+00   -.269E-02 0.152E-02 0.883E-01   -.234E-02 0.114E-02 0.762E-03   -.548E-04 0.114E-04 0.125E-01
   -.180E-02 0.406E-03 -.100E+00   -.262E-02 0.152E-02 0.880E-01   -.234E-02 0.114E-02 0.765E-03   -.683E-04 0.166E-04 0.125E-01
   -.177E-02 0.426E-03 -.100E+00   -.265E-02 0.150E-02 0.880E-01   -.234E-02 0.114E-02 0.763E-03   -.590E-04 0.142E-04 0.125E-01
   -.177E-02 0.394E-03 -.100E+00   -.265E-02 0.154E-02 0.880E-01   -.234E-02 0.114E-02 0.765E-03   -.610E-04 0.737E-05 0.125E-01
   0.298E-03 -.282E-02 -.147E+00   0.269E-02 0.817E-03 0.796E-01   0.188E-02 -.125E-02 -.927E-03   -.141E-05 0.359E-05 0.678E-01
   0.327E-03 0.176E-02 -.147E+00   0.270E-02 -.390E-02 0.796E-01   0.181E-02 -.116E-02 -.106E-02   -.110E-04 -.444E-05 0.678E-01
   -.365E-02 -.563E-03 -.147E+00   0.678E-02 -.154E-02 0.796E-01   0.176E-02 -.114E-02 -.993E-03   -.141E-06 0.138E-04 0.678E-01
   0.465E-02 -.546E-03 -.182E+00   -.176E-02 -.154E-02 0.114E+00   0.191E-02 -.118E-02 -.792E-03   -.105E-04 0.691E-05 0.678E-01
   0.990E-03 -.244E-02 -.120E-01   0.269E-02 0.754E-03 0.797E-01   0.204E-02 -.111E-02 -.802E-03   0.148E-05 -.820E-05 -.679E-01
   0.961E-03 0.200E-02 -.121E-01   0.269E-02 -.383E-02 0.797E-01   0.211E-02 -.102E-02 -.670E-03   0.290E-05 -.500E-05 -.679E-01
   -.287E-02 -.205E-03 -.121E-01   0.667E-02 -.154E-02 0.797E-01   0.199E-02 -.112E-02 -.735E-03   0.479E-05 0.162E-05 -.679E-01
   0.518E-02 -.220E-03 -.462E-01   -.163E-02 -.154E-02 0.114E+00   0.214E-02 -.108E-02 -.486E-03   0.501E-05 -.462E-06 -.679E-01
   -.747E-01 -.621E-03 0.347E+00   0.729E-01 -.132E-02 -.333E+00   0.122E-02 -.112E-02 0.105E-01   -.771E-04 0.153E-04 -.123E-01
   0.211E+00 0.703E-02 0.874E+00   -.210E+00 -.987E-02 -.895E+00   0.241E-01 -.836E-03 0.814E-01   -.851E-04 0.168E-04 -.123E-01
   -.311E+00 -.301E+00 0.870E+00   0.361E+00 0.327E+00 -.890E+00   0.160E-01 -.571E-02 0.812E-01   -.665E-04 0.201E-04 -.123E-01
   -.300E+00 0.295E+00 0.878E+00   0.349E+00 -.326E+00 -.899E+00   0.171E-01 0.299E-02 0.817E-01   -.620E-04 -.103E-04 -.123E-01
   0.143E-02 -.236E-03 -.100E+00   0.268E-02 -.152E-02 0.879E-01   0.225E-02 -.109E-02 -.266E-03   0.108E-03 -.461E-04 0.125E-01
   0.147E-02 -.243E-03 -.100E+00   0.264E-02 -.152E-02 0.881E-01   0.224E-02 -.109E-02 -.264E-03   0.116E-03 -.393E-04 0.125E-01
   0.145E-02 -.251E-03 -.100E+00   0.266E-02 -.151E-02 0.881E-01   0.224E-02 -.109E-02 -.264E-03   0.113E-03 -.403E-04 0.125E-01
   0.145E-02 -.234E-03 -.100E+00   0.266E-02 -.153E-02 0.881E-01   0.224E-02 -.109E-02 -.264E-03   0.114E-03 -.347E-04 0.125E-01
   0.121E-01 -.557E-02 -.155E+00   -.151E-01 0.750E-02 0.876E-01   -.188E-02 0.119E-02 0.305E-03   -.196E-04 0.989E-05 0.678E-01
   -.129E-01 -.806E-02 -.164E+00   0.100E-01 0.101E-01 0.961E-01   -.182E-02 0.113E-02 0.986E-04   -.224E-04 0.154E-04 0.678E-01
   0.172E-02 0.149E-01 -.160E+00   -.478E-02 -.130E-01 0.918E-01   -.180E-02 0.111E-02 0.203E-03   -.266E-04 0.980E-05 0.678E-01
   -.220E-02 0.420E-03 -.144E+00   -.661E-03 0.154E-02 0.762E-01   -.192E-02 0.114E-02 0.392E-04   -.138E-04 0.669E-05 0.678E-01
   -.132E-01 0.849E-02 -.281E-01   0.985E-02 -.687E-02 0.959E-01   -.191E-02 0.107E-02 0.387E-03   -.175E-04 0.137E-04 -.679E-01
   0.115E-01 0.608E-02 -.201E-01   -.149E-01 -.434E-02 0.877E-01   -.198E-02 0.101E-02 0.594E-03   -.793E-05 0.171E-04 -.679E-01
   0.125E-02 -.141E-01 -.241E-01   -.473E-02 0.158E-01 0.918E-01   -.189E-02 0.110E-02 0.490E-03   -.103E-04 0.963E-06 -.679E-01
   -.256E-02 0.158E-03 -.873E-02   -.706E-03 0.154E-02 0.763E-01   -.201E-02 0.106E-02 0.335E-03   -.990E-05 0.382E-05 -.679E-01
   0.994E-04 0.194E-04 -.501E-02   0.145E-13 0.504E-13 0.214E-13   -.799E-04 -.171E-04 0.291E-02   -.496E-04 0.182E-06 0.163E-02

 POSITION                                       TOTAL-FORCE (eV/Angst)
      2.47032     -0.00011      1.85907        -0.194180      0.003896     -0.135816
      4.93431     -0.00022      1.84958         0.034722      0.003062     -0.006392
      1.23348      2.13645      1.84958         0.001716     -0.016005     -0.006329
      3.70064      2.13634      1.84958         0.001620      0.022167     -0.006471
      2.46715     -0.00011      9.24790        -0.006830      0.003077      0.000916
      4.93431     -0.00022      9.24790        -0.006823      0.003077      0.000922
      1.23348      2.13645      9.24790        -0.006825      0.003075      0.000922
      3.70064      2.13634      9.24790        -0.006826      0.003078      0.000922
     -1.23367      2.13656      5.54874         0.004870     -0.003247     -0.000964
      1.23348      2.13645      5.54874         0.004819     -0.003305     -0.000980
     -2.46735      4.27313      5.54874         0.004894     -0.003233     -0.000972
     -0.00019      4.27302      5.54874         0.004792     -0.003263     -0.000805
     -1.23367      2.13656     12.94705         0.005722     -0.002802     -0.000973
      1.23348      2.13645     12.94705         0.005767     -0.002858     -0.000958
     -2.46735      4.27313     12.94705         0.005794     -0.002869     -0.000966
     -0.00019      4.27302     12.94705         0.005690     -0.002843     -0.000750
     -0.00019      1.42441      1.84958        -0.000688     -0.003045      0.011979
      2.46696      1.42430      1.84958         0.024359     -0.003661      0.048497
     -1.23387      3.56098      1.84958         0.066050      0.020990      0.048863
      1.23329      3.56086      1.84958         0.066171     -0.027218      0.048091
     -0.00019      1.42441      9.24790         0.006468     -0.002893     -0.000159
      2.46696      1.42430      9.24790         0.006469     -0.002893     -0.000156
     -1.23387      3.56098      9.24790         0.006469     -0.002892     -0.000156
      1.23329      3.56086      9.24790         0.006470     -0.002893     -0.000156
      1.23367      0.71204      5.54874        -0.004912      0.003130      0.000281
      3.70083      0.71193      5.54874        -0.004763      0.003179      0.000296
     -0.00000      2.84860      5.54874        -0.004880      0.003027      0.000289
      2.46715      2.84849      5.54874        -0.004794      0.003113      0.000001
      1.23367      0.71204     12.94705        -0.005279      0.002704      0.000334
      3.70083      0.71193     12.94705        -0.005390      0.002755      0.000319
     -0.00000      2.84860     12.94705        -0.005379      0.002826      0.000326
      2.46715      2.84849     12.94705        -0.005292      0.002761      0.000046
    total drift:                               -0.000030      0.000003     -0.000470

  FREE ENERGIE OF THE ION-ELECTRON SYSTEM (eV)
  free  energy   TOTEN  =      -297.70431537 eV

  energy  without entropy=     -297.70431537  energy(sigma->0) =     -297.70431537

 BZINTS: Fermi energy:  3.856424;128.000000 electrons
         Band energy:-673.423292;  BLOECHL correction: -0.000002