 vasp.5.3.5 31Mar14 (build Nov 02 2014 15:17:37) complex

 executed on        ion-Intel-MKL date 2016.11.14  14:43:11

 INCAR:
 POTCAR:   PAW_PBE C 08Apr2002
 POTCAR:   PAW_PBE C 08Apr2002
   VRHFIN =C: s2p2

   TITEL  = PAW_PBE C 08Apr2002
   POMASS =   12.011; ZVAL   =    4.000    mass and valenz
   ENMAX  =  400.000; ENMIN  =  300.000 eV
   QCUT   =   -5.516; QGAM   =   11.032    optimization parameters

   Description
     l     E      TYP  RCUT    TYP  RCUT
     0   .000     23  1.200
     0   .000     23  1.200
     1   .000     23  1.500
     1  2.500     23  1.500
     2   .000      7  1.500

 PAW_PBE C 08Apr2002                    :

 POSCAR: CIF file
  positions in direct lattice
  velocities in cartesian coordinates
 exchange correlation table for  LEXCH =        8
   RHO(1)=    0.500       N(1)  =     2000
   RHO(2)=  100.500       N(2)  =     4000

 ion  position               nearest neighbor table
   1  0.999  0.001  0.083-   2 1.42   2 1.42   2 1.42
   2  0.333  0.667  0.083-   1 1.42   1 1.42   1 1.42

  LATTYP: Found a base centered orthorhombic cell.
 ALAT       =     2.4647749720
 B/A-ratio  =     1.7336082085
 C/A-ratio  =    24.3429930451

  Lattice vectors:

 A1 = (   2.4664373398,   0.0000000000,   0.0000000000)
 A2 = (  -1.2348804775,   2.1350370857,   0.0000000000)
 A3 = (   0.0000000000,   0.0000000000,  60.0000000000)

Analysis of symmetry for initial positions (statically):
 Subroutine PRICEL returns:
 Original cell was already a primitive cell.

 Routine SETGRP: Setting up the symmetry group for a
 base centered orthorhombic supercell.

 Subroutine GETGRP returns: Found  8 space group operations
 (whereof  2 operations were pure point group operations)
 out of a pool of  8 trial point group operations.

The static configuration has the point symmetry C_1h.
 The point group associated with its full space group is D_2h.

Analysis of symmetry for dynamics (positions and initial velocities):
 Subroutine PRICEL returns:
 Original cell was already a primitive cell.

 Routine SETGRP: Setting up the symmetry group for a
 base centered orthorhombic supercell.

 Subroutine GETGRP returns: Found  8 space group operations
 (whereof  2 operations were pure point group operations)
 out of a pool of  8 trial point group operations.

The dynamic configuration has the point symmetry C_1h.
 The point group associated with its full space group is D_2h.

 KPOINTS: B4C B11C-CBC

Automatic generation of k-mesh.
Space group operators:
 irot       det(A)        alpha          n_x          n_y          n_z        tau_x        tau_y        tau_z
    1     1.000000     0.000000     1.000000     0.000000     0.000000     0.000000     0.000000     0.000000
    2    -1.000000   180.000000    -0.499663    -0.866220     0.000000     0.000000     0.000000     0.000000
    3    -1.000000     0.000000     1.000000     0.000000     0.000000     0.331932     0.668069     0.165794
    4     1.000000   180.000000     0.000000     0.000000     1.000000     0.331932     0.668069     0.000000
    5    -1.000000   180.000000     0.000000     0.000000     1.000000     0.000000     0.000000     0.165794
    6     1.000000   180.000000     0.866220    -0.499663     0.000000     0.000000     0.000000     0.165794
    7    -1.000000   180.000000     0.866220    -0.499663     0.000000     0.331932     0.668069     0.000000
    8     1.000000   180.000000    -0.499663    -0.866220     0.000000     0.331932     0.668069     0.165794

 Subroutine IBZKPT returns following result:

 Found    215 irreducible k-points:

 Following reciprocal coordinates:
            Coordinates               Weight
  0.000000  0.000000  0.000000      1.000000
  0.083333 -0.000000  0.000000      4.000000
  0.166667 -0.000000  0.000000      4.000000
  0.250000  0.000000  0.000000      4.000000
  0.333333 -0.000000  0.000000      4.000000
  0.416667 -0.000000  0.000000      4.000000
  0.500000  0.000000  0.000000      2.000000
  0.083333  0.083333  0.000000      2.000000
  0.166667  0.083333  0.000000      4.000000
  0.250000  0.083333  0.000000      4.000000
  0.333333  0.083333  0.000000      4.000000
  0.416667  0.083333  0.000000      4.000000
  0.500000  0.083333  0.000000      4.000000
 -0.416667  0.083333  0.000000      4.000000
 -0.333333  0.083333  0.000000      4.000000
 -0.250000  0.083333  0.000000      4.000000
 -0.166667  0.083333  0.000000      4.000000
 -0.083333  0.083333  0.000000      2.000000
  0.166667  0.166667  0.000000      2.000000
  0.250000  0.166667  0.000000      4.000000
  0.333333  0.166667  0.000000      4.000000
  0.416667  0.166667  0.000000      4.000000
  0.500000  0.166667  0.000000      4.000000
 -0.416667  0.166667  0.000000      4.000000
 -0.333333  0.166667  0.000000      4.000000
 -0.250000  0.166667  0.000000      4.000000
 -0.166667  0.166667  0.000000      2.000000
  0.250000  0.250000  0.000000      2.000000
  0.333333  0.250000  0.000000      4.000000
  0.416667  0.250000  0.000000      4.000000
  0.500000  0.250000  0.000000      4.000000
 -0.416667  0.250000  0.000000      4.000000
 -0.333333  0.250000  0.000000      4.000000
 -0.250000  0.250000  0.000000      2.000000
  0.333333  0.333333  0.000000      2.000000
  0.416667  0.333333  0.000000      4.000000
  0.500000  0.333333  0.000000      4.000000
 -0.416667  0.333333  0.000000      4.000000
 -0.333333  0.333333  0.000000      2.000000
  0.416667  0.416667  0.000000      2.000000
  0.500000  0.416667  0.000000      4.000000
 -0.416667  0.416667  0.000000      2.000000
  0.500000  0.500000  0.000000      1.000000
  0.000000  0.000000  0.125000      2.000000
  0.083333 -0.000000  0.125000      8.000000
  0.166667 -0.000000  0.125000      8.000000
  0.250000  0.000000  0.125000      8.000000
  0.333333 -0.000000  0.125000      8.000000
  0.416667 -0.000000  0.125000      8.000000
  0.500000  0.000000  0.125000      4.000000
  0.083333  0.083333  0.125000      4.000000
  0.166667  0.083333  0.125000      8.000000
  0.250000  0.083333  0.125000      8.000000
  0.333333  0.083333  0.125000      8.000000
  0.416667  0.083333  0.125000      8.000000
  0.500000  0.083333  0.125000      8.000000
 -0.416667  0.083333  0.125000      8.000000
 -0.333333  0.083333  0.125000      8.000000
 -0.250000  0.083333  0.125000      8.000000
 -0.166667  0.083333  0.125000      8.000000
[...]
  0.333333  0.250000  0.500000      4.000000
  0.416667  0.250000  0.500000      4.000000
  0.500000  0.250000  0.500000      4.000000
 -0.416667  0.250000  0.500000      4.000000
 -0.333333  0.250000  0.500000      4.000000
 -0.250000  0.250000  0.500000      2.000000
  0.333333  0.333333  0.500000      2.000000
  0.416667  0.333333  0.500000      4.000000
  0.500000  0.333333  0.500000      4.000000
 -0.416667  0.333333  0.500000      4.000000
 -0.333333  0.333333  0.500000      2.000000
  0.416667  0.416667  0.500000      2.000000
  0.500000  0.416667  0.500000      4.000000
 -0.416667  0.416667  0.500000      2.000000
  0.500000  0.500000  0.500000      1.000000

 Following cartesian coordinates:
            Coordinates               Weight
  0.000000  0.000000  0.000000      1.000000
  0.033787  0.019542  0.000000      4.000000
  0.067574  0.039084  0.000000      4.000000
  0.101361  0.058626  0.000000      4.000000
  0.135148  0.078168  0.000000      4.000000
  0.168935  0.097710  0.000000      4.000000
  0.202722  0.117252  0.000000      2.000000
  0.033787  0.058573  0.000000      2.000000
  0.067574  0.078115  0.000000      4.000000
  0.101361  0.097657  0.000000      4.000000
  0.135148  0.117199  0.000000      4.000000
  0.168935  0.136741  0.000000      4.000000
  0.202722  0.156283  0.000000      4.000000
 -0.168935 -0.058678  0.000000      4.000000
 -0.135148 -0.039137  0.000000      4.000000
 -0.101361 -0.019595  0.000000      4.000000
 -0.067574 -0.000053  0.000000      4.000000
 -0.033787  0.019489  0.000000      2.000000
  0.067574  0.117147  0.000000      2.000000
  0.101361  0.136689  0.000000      4.000000
  0.135148  0.156231  0.000000      4.000000
  0.168935  0.175772  0.000000      4.000000
  0.202722  0.195314  0.000000      4.000000
 -0.168935 -0.019647  0.000000      4.000000
 -0.135148 -0.000105  0.000000      4.000000
 -0.101361  0.019437  0.000000      4.000000
 -0.067574  0.038979  0.000000      2.000000
  0.101361  0.175720  0.000000      2.000000
  0.135148  0.195262  0.000000      4.000000
  0.168935  0.214804  0.000000      4.000000
  0.202722  0.234346  0.000000      4.000000
 -0.168935  0.019384  0.000000      4.000000
 -0.135148  0.038926  0.000000      4.000000
 -0.101361  0.058468  0.000000      2.000000
  0.135148  0.234293  0.000000      2.000000
  0.168935  0.253835  0.000000      4.000000
  0.202722  0.273377  0.000000      4.000000
 -0.168935  0.058416  0.000000      4.000000
 -0.135148  0.077957  0.000000      2.000000
  0.168935  0.292866  0.000000      2.000000
  0.202722  0.312408  0.000000      4.000000
 -0.168935  0.097447  0.000000      2.000000
  0.202722  0.351440  0.000000      1.000000
  0.000000  0.000000  0.002083      2.000000
  0.033787  0.019542  0.002083      8.000000
  0.067574  0.039084  0.002083      8.000000
  0.101361  0.058626  0.002083      8.000000
  0.135148  0.078168  0.002083      8.000000
  0.168935  0.097710  0.002083      8.000000
  0.202722  0.117252  0.002083      4.000000
  0.033787  0.058573  0.002083      4.000000
  0.067574  0.078115  0.002083      8.000000
  0.101361  0.097657  0.002083      8.000000
  0.135148  0.117199  0.002083      8.000000
  0.168935  0.136741  0.002083      8.000000
  0.202722  0.156283  0.002083      8.000000
 -0.168935 -0.058678  0.002083      8.000000
 -0.135148 -0.039137  0.002083      8.000000
 -0.101361 -0.019595  0.002083      8.000000
 -0.067574 -0.000053  0.002083      8.000000
[...]
  0.135148  0.195262  0.008333      4.000000
  0.168935  0.214804  0.008333      4.000000
  0.202722  0.234346  0.008333      4.000000
 -0.168935  0.019384  0.008333      4.000000
 -0.135148  0.038926  0.008333      4.000000
 -0.101361  0.058468  0.008333      2.000000
  0.135148  0.234293  0.008333      2.000000
  0.168935  0.253835  0.008333      4.000000
  0.202722  0.273377  0.008333      4.000000
 -0.168935  0.058416  0.008333      4.000000
 -0.135148  0.077957  0.008333      2.000000
  0.168935  0.292866  0.008333      2.000000
  0.202722  0.312408  0.008333      4.000000
 -0.168935  0.097447  0.008333      2.000000
  0.202722  0.351440  0.008333      1.000000

 TETIRR: Found   1728 inequivalent tetrahedra from     6912

 I would recommend the setting:
   dimension x,y,z NGX =    23 NGY =   23 NGZ =  553
 SYSTEM =  graphite
 POSCAR =  CIF file

 Startparameter for this run:
   NWRITE =      2    write-flag & timer
   PREC   = accura    normal or accurate (medium, high low for compatibility)
   ISTART =      0    job   : 0-new  1-cont  2-samecut
   ICHARG =      2    charge: 1-file 2-atom 10-const
   ISPIN  =      1    spin polarized calculation?
   LNONCOLLINEAR =      F non collinear calculations
   LSORBIT =      F    spin-orbit coupling
   INIWAV =      1    electr: 0-lowe 1-rand  2-diag
   LASPH  =      F    aspherical Exc in radial PAW
[...]
 k-point 22 :   0.4167 0.1667 0.0000  plane waves:   16260
 k-point 23 :   0.5000 0.1667 0.0000  plane waves:   16178
 k-point 24 :  -0.4167 0.1667 0.0000  plane waves:   16171
 k-point 25 :  -0.3333 0.1667 0.0000  plane waves:   16256
 k-point 26 :  -0.2500 0.1667 0.0000  plane waves:   16297
 k-point 27 :  -0.1667 0.1667 0.0000  plane waves:   16300
 k-point 28 :   0.2500 0.2500 0.0000  plane waves:   16186
 k-point 29 :   0.3333 0.2500 0.0000  plane waves:   16159
 k-point 30 :   0.4167 0.2500 0.0000  plane waves:   16150
 k-point 31 :   0.5000 0.2500 0.0000  plane waves:   16182
 k-point 32 :  -0.4167 0.2500 0.0000  plane waves:   16175
 k-point 33 :  -0.3333 0.2500 0.0000  plane waves:   16244
 k-point 34 :  -0.2500 0.2500 0.0000  plane waves:   16300
 k-point 35 :   0.3333 0.3333 0.0000  plane waves:   16062
 k-point 36 :   0.4167 0.3333 0.0000  plane waves:   16159
 k-point 37 :   0.5000 0.3333 0.0000  plane waves:   16184
 k-point 38 :  -0.4167 0.3333 0.0000  plane waves:   16209
 k-point 39 :  -0.3333 0.3333 0.0000  plane waves:   16264
 k-point 40 :   0.4167 0.4167 0.0000  plane waves:   16260
 k-point 41 :   0.5000 0.4167 0.0000  plane waves:   16270
 k-point 42 :  -0.4167 0.4167 0.0000  plane waves:   16270
 k-point 43 :   0.5000 0.5000 0.0000  plane waves:   16252
 k-point 44 :   0.0000 0.0000 0.1250  plane waves:   16261
 k-point 45 :   0.0833-0.0000 0.1250  plane waves:   16270
 k-point 46 :   0.1667-0.0000 0.1250  plane waves:   16300
 k-point 47 :   0.2500 0.0000 0.1250  plane waves:   16288
 k-point 48 :   0.3333-0.0000 0.1250  plane waves:   16253
 k-point 49 :   0.4167-0.0000 0.1250  plane waves:   16271
 k-point 50 :   0.5000 0.0000 0.1250  plane waves:   16246
 k-point 51 :   0.0833 0.0833 0.1250  plane waves:   16312
 k-point 52 :   0.1667 0.0833 0.1250  plane waves:   16286
 k-point 53 :   0.2500 0.0833 0.1250  plane waves:   16251
 k-point 54 :   0.3333 0.0833 0.1250  plane waves:   16208
 k-point 55 :   0.4167 0.0833 0.1250  plane waves:   16272
 k-point 56 :   0.5000 0.0833 0.1250  plane waves:   16269
 k-point 57 :  -0.4167 0.0833 0.1250  plane waves:   16207
 k-point 58 :  -0.3333 0.0833 0.1250  plane waves:   16249
 k-point 59 :  -0.2500 0.0833 0.1250  plane waves:   16287
 k-point 60 :  -0.1667 0.0833 0.1250  plane waves:   16315
[...]
 k-point 85 :  -0.4167 0.4167 0.1250  plane waves:   16277
 k-point 86 :   0.5000 0.5000 0.1250  plane waves:   16240
 k-point 87 :   0.0000 0.0000 0.2500  plane waves:   16265
 k-point 88 :   0.0833-0.0000 0.2500  plane waves:   16274
 k-point 89 :   0.1667-0.0000 0.2500  plane waves:   16302
 k-point 90 :   0.2500 0.0000 0.2500  plane waves:   16291
 k-point 91 :   0.3333-0.0000 0.2500  plane waves:   16246
 k-point 92 :   0.4167-0.0000 0.2500  plane waves:   16272
 k-point 93 :   0.5000 0.0000 0.2500  plane waves:   16244
 k-point 94 :   0.0833 0.0833 0.2500  plane waves:   16309
 k-point 95 :   0.1667 0.0833 0.2500  plane waves:   16289
 k-point 96 :   0.2500 0.0833 0.2500  plane waves:   16252
 k-point 97 :   0.3333 0.0833 0.2500  plane waves:   16208
 k-point 98 :   0.4167 0.0833 0.2500  plane waves:   16268
 k-point 99 :   0.5000 0.0833 0.2500  plane waves:   16266
 k-point ** :  -0.4167 0.0833 0.2500  plane waves:   16211
 k-point ** :  -0.3333 0.0833 0.2500  plane waves:   16248
 k-point ** :  -0.2500 0.0833 0.2500  plane waves:   16288
 k-point ** :  -0.1667 0.0833 0.2500  plane waves:   16305
 k-point ** :  -0.0833 0.0833 0.2500  plane waves:   16281
 k-point ** :   0.1667 0.1667 0.2500  plane waves:   16265
 k-point ** :   0.2500 0.1667 0.2500  plane waves:   16177
 k-point ** :   0.3333 0.1667 0.2500  plane waves:   16190
 k-point ** :   0.4167 0.1667 0.2500  plane waves:   16249
 k-point ** :   0.5000 0.1667 0.2500  plane waves:   16188
 k-point ** :  -0.4167 0.1667 0.2500  plane waves:   16181
 k-point ** :  -0.3333 0.1667 0.2500  plane waves:   16268
 k-point ** :  -0.2500 0.1667 0.2500  plane waves:   16285
 k-point ** :  -0.1667 0.1667 0.2500  plane waves:   16291
 k-point ** :   0.2500 0.2500 0.2500  plane waves:   16169
 k-point ** :   0.3333 0.2500 0.2500  plane waves:   16146
 k-point ** :   0.4167 0.2500 0.2500  plane waves:   16141
 k-point ** :   0.5000 0.2500 0.2500  plane waves:   16179
 k-point ** :  -0.4167 0.2500 0.2500  plane waves:   16177
 k-point ** :  -0.3333 0.2500 0.2500  plane waves:   16250
 k-point ** :  -0.2500 0.2500 0.2500  plane waves:   16293
 k-point ** :   0.3333 0.3333 0.2500  plane waves:   16070
 k-point ** :   0.4167 0.3333 0.2500  plane waves:   16148
 k-point ** :   0.5000 0.3333 0.2500  plane waves:   16188
 k-point ** :  -0.4167 0.3333 0.2500  plane waves:   16214
 k-point ** :  -0.3333 0.3333 0.2500  plane waves:   16249
 k-point ** :   0.4167 0.4167 0.2500  plane waves:   16246
 k-point ** :   0.5000 0.4167 0.2500  plane waves:   16271
 k-point ** :  -0.4167 0.4167 0.2500  plane waves:   16279
 k-point ** :   0.5000 0.5000 0.2500  plane waves:   16248
 k-point ** :   0.0000 0.0000 0.3750  plane waves:   16274
 k-point ** :   0.0833-0.0000 0.3750  plane waves:   16266
 k-point ** :   0.1667-0.0000 0.3750  plane waves:   16292
 k-point ** :   0.2500 0.0000 0.3750  plane waves:   16289
 k-point ** :   0.3333-0.0000 0.3750  plane waves:   16250
 k-point ** :   0.4167-0.0000 0.3750  plane waves:   16269
 k-point ** :   0.5000 0.0000 0.3750  plane waves:   16236
 k-point ** :   0.0833 0.0833 0.3750  plane waves:   16300
 k-point ** :   0.1667 0.0833 0.3750  plane waves:   16288
 k-point ** :   0.2500 0.0833 0.3750  plane waves:   16252
 k-point ** :   0.3333 0.0833 0.3750  plane waves:   16212
 k-point ** :   0.4167 0.0833 0.3750  plane waves:   16274
 k-point ** :   0.5000 0.0833 0.3750  plane waves:   16273
 k-point ** :  -0.4167 0.0833 0.3750  plane waves:   16210
 k-point ** :  -0.3333 0.0833 0.3750  plane waves:   16250
 k-point ** :  -0.2500 0.0833 0.3750  plane waves:   16293
 k-point ** :  -0.1667 0.0833 0.3750  plane waves:   16300
 k-point ** :  -0.0833 0.0833 0.3750  plane waves:   16270
 k-point ** :   0.1667 0.1667 0.3750  plane waves:   16269
 k-point ** :   0.2500 0.1667 0.3750  plane waves:   16176
 k-point ** :   0.3333 0.1667 0.3750  plane waves:   16190
 k-point ** :   0.4167 0.1667 0.3750  plane waves:   16247
 k-point ** :   0.5000 0.1667 0.3750  plane waves:   16187
 k-point ** :  -0.4167 0.1667 0.3750  plane waves:   16180
 k-point ** :  -0.3333 0.1667 0.3750  plane waves:   16275
 k-point ** :  -0.2500 0.1667 0.3750  plane waves:   16286
 k-point ** :  -0.1667 0.1667 0.3750  plane waves:   16289
 k-point ** :   0.2500 0.2500 0.3750  plane waves:   16166
 k-point ** :   0.3333 0.2500 0.3750  plane waves:   16139
 k-point ** :   0.4167 0.2500 0.3750  plane waves:   16138
[...]
 k-point ** :   0.3333 0.2500 0.5000  plane waves:   16142
 k-point ** :   0.4167 0.2500 0.5000  plane waves:   16138
 k-point ** :   0.5000 0.2500 0.5000  plane waves:   16166
 k-point ** :  -0.4167 0.2500 0.5000  plane waves:   16180
 k-point ** :  -0.3333 0.2500 0.5000  plane waves:   16254
 k-point ** :  -0.2500 0.2500 0.5000  plane waves:   16294
 k-point ** :   0.3333 0.3333 0.5000  plane waves:   16082
 k-point ** :   0.4167 0.3333 0.5000  plane waves:   16146
 k-point ** :   0.5000 0.3333 0.5000  plane waves:   16188
 k-point ** :  -0.4167 0.3333 0.5000  plane waves:   16222
 k-point ** :  -0.3333 0.3333 0.5000  plane waves:   16260
 k-point ** :   0.4167 0.4167 0.5000  plane waves:   16244
 k-point ** :   0.5000 0.4167 0.5000  plane waves:   16274
 k-point ** :  -0.4167 0.4167 0.5000  plane waves:   16270
 k-point ** :   0.5000 0.5000 0.5000  plane waves:   16232

 maximum and minimum number of plane-waves per node :     16315    16062

 maximum number of plane-waves:     16315
 maximum index in each direction:
   IXMAX=    6   IYMAX=    5   IZMAX=  138
   IXMIN=   -6   IYMIN=   -6   IZMIN= -138

 WARNING: aliasing errors must be expected set NGX to  26 to avoid them
 NGY is ok and might be reduce to  24
 NGZ is ok and might be reduce to 554
 aliasing errors are usually negligible using standard VASP settings
 and one can safely disregard these warnings

 serial   3D FFT for wavefunctions
 parallel 3D FFT for charge:
    minimum data exchange during FFTs selected (reduces bandwidth)

 Broyden mixing: mesh for mixing (old mesh)
   NGX = 11   NGY = 11   NGZ =277
  (NGX  = 48   NGY  = 48   NGZ  =***)
  gives a total of  33517 points

 initial charge density was supplied:
 charge density of overlapping atoms calculated
 number of electron       8.0000000 magnetization
 keeping initial charge density in first step

 Maximum index for augmentation-charges        11719 (set IRDMAX)

 First call to EWALD:  gamma=   0.260
 Maximum number of real-space cells 8x 8x 1
 Maximum number of reciprocal cells 1x 1x20

 FEWALD executed in parallel

----------------------------------------- Iteration    1(   1)  ---------------------------------------

 BZINTS: Fermi energy:  4.322469;  8.000000 electrons
         Band energy: -31.408094;  BLOECHL correction: -1.163146

 eigenvalue-minimisations  :  3936
 total energy-change (2. order) : 0.8897203E+02  (-0.3483590E+03)
 number of electron       8.0000000 magnetization
 augmentation part        8.0000000 magnetization

 Free energy of the ion-electron system (eV)
  alpha Z        PSCENC =         1.03153775
  Ewald energy   TEWEN  =      4960.30073948
  -Hartree energ DENC   =     -5160.51535621
  -exchange      EXHF   =         0.00000000
  -V(xc)+E(xc)   XCENC  =        27.55531778
  PAW double counting   =        75.66288619      -77.96384553
  entropy T*S    EENTRO =         0.00000000
  eigenvalues    EBANDS =       -31.40809434
  atomic energy  EATOM  =       294.30884690
  free energy    TOTEN  =        88.97203204 eV

  energy without entropy =       88.97203204  energy(sigma->0) =       88.97203204

[...]

 BZINTS: Fermi energy: -3.655588;  8.000000 electrons
         Band energy:-128.494219;  BLOECHL correction: -0.108442

 eigenvalue-minimisations  :  5504
 total energy-change (2. order) :-0.9708612E+02  (-0.6714145E+02)
 number of electron       8.0000000 magnetization
 augmentation part        8.0000000 magnetization

[...]

 Broyden mixing:
  rms(total) = 0.55278E+00    rms(broyden)= 0.55277E+00
  rms(prec ) = 0.55851E+00
  weight for this iteration     100.00

[...]

 eigenvalues of (default mixing * dielectric matrix)
  average eigenvalue GAMMA=   2.0419
  2.0419

[...]

 eigenvalue-minimisations  :  5392
 total energy-change (2. order) : 0.1193860E-02  (-0.1534822E-03)
 number of electron       8.0000000 magnetization
 augmentation part        0.1914322 magnetization

[...]

 eigenvalue-minimisations  :  5072
 total energy-change (2. order) :-0.2469282E-06  (-0.1010445E-09)
 number of electron       8.0000000 magnetization
 augmentation part        0.1912918 magnetization

[...]

 eigenvalue-minimisations  :  6480
 total energy-change (2. order) :-0.3661557E-07  ( 0.4461568E-10)
 number of electron       8.0000000 magnetization
 augmentation part        0.1912919 magnetization

[...]

 Broyden mixing:
  rms(total) = 0.16801E-06    rms(broyden)= 0.16801E-06
  rms(prec ) = 0.18312E-06
  weight for this iteration     100.00

 eigenvalues of (default mixing * dielectric matrix)
  average eigenvalue GAMMA=   3.3027
  9.6780  8.5929  6.6546  5.5063  4.2752  3.7410  2.8986  2.8986  1.9797  2.5432
  2.3361  2.3361  1.0191  0.9849  0.9923  0.9923  1.0095  1.0095

[...]

----------------------------------------- Iteration    1(  24)  ---------------------------------------

[...]

 eigenvalue-minimisations  :  5696
 total energy-change (2. order) :-0.3645880E-08  ( 0.5272305E-10)
 number of electron       8.0000000 magnetization
 augmentation part        0.1912919 magnetization

 Free energy of the ion-electron system (eV)
  alpha Z        PSCENC =         1.03153775
  Ewald energy   TEWEN  =      4960.30073948
  -Hartree energ DENC   =     -5197.18997788
  -exchange      EXHF   =         0.00000000
  -V(xc)+E(xc)   XCENC  =        28.76996942
  PAW double counting   =       138.85869485     -141.43442226
  entropy T*S    EENTRO =         0.00000000
  eigenvalues    EBANDS =      -103.09855727
  atomic energy  EATOM  =       294.30884690
  free energy    TOTEN  =       -18.45316901 eV

  energy without entropy =      -18.45316901  energy(sigma->0) =      -18.45316901

 average (electrostatic) potential at core
  the test charge radii are     0.6991
  (the norm of the test charge is              1.0000)
       1 -59.1848       2 -59.1848

 E-fermi :  -3.7516     XC(G=0):  -0.7293     alpha+bet : -0.6355

 k-point     1 :       0.0000    0.0000    0.0000
  band No.  band energies     occupation
      1     -23.2640      2.00000
      2     -11.3670      2.00000
      3      -6.7945      2.00000
      4      -6.7703      2.00000
      5      -0.4779      0.00000
      6       0.2916      0.00000
      7       0.4946      0.00000
      8       0.5482      0.00000

[...]

 k-point   215 :       0.5000    0.5000    0.5000
  band No.  band energies     occupation
      1     -18.0258      2.00000
      2     -16.9898      2.00000
      3     -10.1454      2.00000
      4      -6.1145      2.00000
      5      -2.0777      0.00000
      6       3.6529      0.00000
      7       7.3636      0.00000
      8       7.5200      0.00000

 soft charge-density along one line, spin component           1
         0         1         2         3         4         5         6         7         8         9
 total charge-density along one line

------------------------ aborting loop because EDIFF is reached ----------------------------------------

         DFTD3 V3.0 Rev 1
 IVDW         = 12
 DF pbe
 parameters
 VDW_S6       =    1.0000
 VDW_S8       =    0.7875
 VDW_A1       =    0.4289
 VDW_A2       =    4.4407
 k1-k3        =   16.0000    1.3333   -4.0000
 VDW_RADIUS   =   50.2022 A
 VDW_CNRADIUS =   21.1671 A
 Edisp (eV)   -0.17712

 E6    (eV) :    -0.1217
 E8    (eV) :    -0.0555
 % E8        : 31.31

  FORCE on cell =-STRESS in cart. coord.  units (eV):
  Direction    XX          YY          ZZ          XY          YZ          ZX
  Alpha Z     1.03154     1.03154     1.03154
  Ewald    5229.20056  5229.17185 -5498.07219    -0.02485     0.00000     0.00000
  Hartree  5185.85675  5185.88529 -5174.55205     0.02468     0.00000    -0.00000
  E(xc)     -29.17920   -29.17848   -30.34888     0.00063    -0.00000     0.00000
  Local  -10499.16743-10499.22122 10571.56875    -0.04649    -0.00000     0.00000
  n-local    -7.17914    -6.81763    -6.39128    -0.12116    -0.00000     0.00000
  augment    -0.77285    -0.77254    -0.70836     0.00027     0.00000    -0.00000
  Kinetic   121.96002   118.28989   137.44938     0.97790    -0.00000    -0.00000
  Fock        0.00000     0.00000     0.00000     0.00000     0.00000     0.00000
  vdW        -0.04317    -0.04285     0.00000     0.00028     0.00000     0.00000
  Total       0.09614    -0.04322    -0.02310    -0.12048     0.00000     0.00000
  in kB       0.48753    -0.21917    -0.11714    -0.61093     0.00000     0.00000

 VOLUME and BASIS-vectors are now :
  energy-cutoff  :      800.00
  volume of cell :      315.96
      direct lattice vectors                 reciprocal lattice vectors
     2.466437340  0.000000000  0.000000000     0.405443100  0.234503546  0.000000000
    -1.234880477  2.135037086  0.000000000     0.000000000  0.468375939  0.000000000
     0.000000000  0.000000000 60.000000000     0.000000000  0.000000000  0.016666667

  length of vectors
     2.466437340  2.466437340 60.000000000     0.468375939  0.468375939  0.016666667

 FORCES acting on ions
    electron-ion (+dipol)            ewald-force                    non-local-force                 convergence-correction
   -.236E+00 0.136E+00 0.608E-06   0.108E+00 -.624E-01 0.000E+00   -.430E-01 0.248E-01 0.000E+00   0.181E-06 -.105E-06 0.244E-11
   0.236E+00 -.136E+00 0.605E-06   -.108E+00 0.624E-01 0.000E+00   0.430E-01 -.248E-01 0.000E+00   -.181E-06 0.105E-06 0.250E-11
   0.170E-05 -.148E-04 0.121E-05   0.402E-14 -.182E-14 0.000E+00   -.167E-15 0.000E+00 0.000E+00   -.290E-12 0.589E-12 0.494E-11

 POSITION                                       TOTAL-FORCE (eV/Angst)
      2.46402      0.00140      4.97381        -0.170928      0.098597      0.000000
     -0.00388      1.42496      4.97381         0.170928     -0.098597      0.000000
    total drift:                                0.000002     -0.000015      0.000001

  FREE ENERGIE OF THE ION-ELECTRON SYSTEM (eV)
  free  energy   TOTEN  =       -18.63028737 eV

  energy  without entropy=      -18.63028737  energy(sigma->0) =      -18.63028737

 BZINTS: Fermi energy: -3.751640;  8.000000 electrons
         Band energy:-103.098557;  BLOECHL correction:  0.000000