 vasp.5.3.5 31Mar14 (build Nov 02 2014 15:17:37) complex

 executed on        ion-Intel-MKL date 2016.08.14  15:35:36

 INCAR:
 POTCAR:   PAW_PBE C 08Apr2002
 POTCAR:   PAW_PBE C 08Apr2002
   VRHFIN =C: s2p2

   TITEL  = PAW_PBE C 08Apr2002
   POMASS =   12.011; ZVAL   =    4.000    mass and valenz
   ENMAX  =  400.000; ENMIN  =  300.000 eV
   QCUT   =   -5.516; QGAM   =   11.032    optimization parameters

   Description
     l     E      TYP  RCUT    TYP  RCUT
     0   .000     23  1.200
     0   .000     23  1.200
     1   .000     23  1.500
     1  2.500     23  1.500
     2   .000      7  1.500

 PAW_PBE C 08Apr2002                    :

 POSCAR: CIF file
  positions in direct lattice
  velocities in cartesian coordinates
 exchange correlation table for  LEXCH =        8
   RHO(1)=    0.500       N(1)  =     2000
   RHO(2)=  100.500       N(2)  =     4000

 ion  position               nearest neighbor table
   1  0.999  0.001  0.250-   3 1.42   3 1.42   3 1.42
   2  0.001  0.999  0.750-   4 1.42   4 1.42   4 1.42
   3  0.333  0.667  0.250-   1 1.42   1 1.42   1 1.42
   4  0.667  0.333  0.750-   2 1.42   2 1.42   2 1.42

  LATTYP: Found a base centered orthorhombic cell.
 ALAT       =     2.4647750986
 B/A-ratio  =     1.7336081796
 C/A-ratio  =     2.1524887143

  Lattice vectors:

 A1 = (   2.4664372490,  -0.0009596430,   0.0000000000)
 A2 = (  -1.2340496996,   2.1355174929,   0.0000000000)
 A3 = (   0.0000000000,   0.0000000000,   5.3054005830)

Analysis of symmetry for initial positions (statically):
 Subroutine PRICEL returns:
 Original cell was already a primitive cell.

 Routine SETGRP: Setting up the symmetry group for a
 base centered orthorhombic supercell.

 Subroutine GETGRP returns: Found  8 space group operations
 (whereof  4 operations were pure point group operations)
 out of a pool of  8 trial point group operations.

The static configuration has the point symmetry C_2h.
 The point group associated with its full space group is D_2h.

Analysis of symmetry for dynamics (positions and initial velocities):
 Subroutine PRICEL returns:
 Original cell was already a primitive cell.

 Routine SETGRP: Setting up the symmetry group for a
 base centered orthorhombic supercell.

 Subroutine GETGRP returns: Found  8 space group operations
 (whereof  4 operations were pure point group operations)
 out of a pool of  8 trial point group operations.

The dynamic configuration has the point symmetry C_2h.
 The point group associated with its full space group is D_2h.

 KPOINTS: B4C B11C-CBC

Automatic generation of k-mesh.
Space group operators:
 irot       det(A)        alpha          n_x          n_y          n_z        tau_x        tau_y        tau_z
    1     1.000000     0.000001     1.000000     0.000000     0.000000     0.000000     0.000000     0.000000
    2    -1.000000     0.000001     1.000000     0.000000     0.000000     0.000000     0.000000     0.000000
    3     1.000000   180.000000    -0.500000    -0.866025     0.000000     0.000000     0.000000     0.000000
    4    -1.000000   180.000000    -0.500000    -0.866025     0.000000     0.000000     0.000000     0.000000
    5     1.000000   179.999999     0.000000     0.000000     1.000000     0.000000     0.000000     0.500000
    6    -1.000000   179.999999     0.000000     0.000000     1.000000     0.000000     0.000000     0.500000
    7     1.000000   180.000000     0.866025    -0.500000     0.000000     0.000000     0.000000     0.500000
    8    -1.000000   180.000000     0.866025    -0.500000     0.000000     0.000000     0.000000     0.500000

 Subroutine IBZKPT returns following result:

 Found    455 irreducible k-points:

 Following reciprocal coordinates:
            Coordinates               Weight
  0.000000  0.000000  0.000000      1.000000
  0.055556 -0.000000  0.000000      4.000000
  0.111111 -0.000000  0.000000      4.000000
  0.166667 -0.000000  0.000000      4.000000
  0.222222  0.000000  0.000000      4.000000
  0.277778  0.000000  0.000000      4.000000
  0.333333 -0.000000  0.000000      4.000000
  0.388889  0.000000  0.000000      4.000000
  0.444444  0.000000  0.000000      4.000000
  0.500000  0.000000  0.000000      2.000000
  0.055556  0.055556  0.000000      2.000000
  0.111111  0.055556  0.000000      4.000000
  0.166667  0.055556  0.000000      4.000000
  0.222222  0.055556  0.000000      4.000000
  0.277778  0.055556  0.000000      4.000000
  0.333333  0.055556  0.000000      4.000000
  0.388889  0.055556  0.000000      4.000000
  0.444444  0.055556  0.000000      4.000000
  0.500000  0.055556  0.000000      4.000000
 -0.444444  0.055556  0.000000      4.000000
 -0.388889  0.055556  0.000000      4.000000
 -0.333333  0.055556  0.000000      4.000000
 -0.277778  0.055556  0.000000      4.000000
 -0.222222  0.055556  0.000000      4.000000
 -0.166667  0.055556  0.000000      4.000000
 -0.111111  0.055556  0.000000      4.000000
 -0.055556  0.055556  0.000000      2.000000
  0.111111  0.111111  0.000000      2.000000
  0.166667  0.111111  0.000000      4.000000
  0.222222  0.111111  0.000000      4.000000
  0.277778  0.111111  0.000000      4.000000
  0.333333  0.111111  0.000000      4.000000
  0.388889  0.111111  0.000000      4.000000
  0.444444  0.111111  0.000000      4.000000
  0.500000  0.111111  0.000000      4.000000
 -0.444444  0.111111  0.000000      4.000000
 -0.388889  0.111111  0.000000      4.000000
 -0.333333  0.111111  0.000000      4.000000
 -0.277778  0.111111  0.000000      4.000000
 -0.222222  0.111111  0.000000      4.000000
 -0.166667  0.111111  0.000000      4.000000
 -0.111111  0.111111  0.000000      2.000000
  0.166667  0.166667  0.000000      2.000000
  0.222222  0.166667  0.000000      4.000000
  0.277778  0.166667  0.000000      4.000000
  0.333333  0.166667  0.000000      4.000000
  0.388889  0.166667  0.000000      4.000000
  0.444444  0.166667  0.000000      4.000000
  0.500000  0.166667  0.000000      4.000000
 -0.444444  0.166667  0.000000      4.000000
 -0.388889  0.166667  0.000000      4.000000
 -0.333333  0.166667  0.000000      4.000000
 -0.277778  0.166667  0.000000      4.000000
 -0.222222  0.166667  0.000000      4.000000
 -0.166667  0.166667  0.000000      2.000000
  0.222222  0.222222  0.000000      2.000000
  0.277778  0.222222  0.000000      4.000000
  0.333333  0.222222  0.000000      4.000000
  0.388889  0.222222  0.000000      4.000000
  0.444444  0.222222  0.000000      4.000000
[...]
  0.388889  0.333333  0.500000      4.000000
  0.444444  0.333333  0.500000      4.000000
  0.500000  0.333333  0.500000      4.000000
 -0.444444  0.333333  0.500000      4.000000
 -0.388889  0.333333  0.500000      4.000000
 -0.333333  0.333333  0.500000      2.000000
  0.388889  0.388889  0.500000      2.000000
  0.444444  0.388889  0.500000      4.000000
  0.500000  0.388889  0.500000      4.000000
 -0.444444  0.388889  0.500000      4.000000
 -0.388889  0.388889  0.500000      2.000000
  0.444444  0.444444  0.500000      2.000000
  0.500000  0.444444  0.500000      4.000000
 -0.444444  0.444444  0.500000      2.000000
  0.500000  0.500000  0.500000      1.000000

 Following cartesian coordinates:
            Coordinates               Weight
  0.000000  0.000000  0.000000      1.000000
  0.022530  0.013019  0.000000      4.000000
  0.045059  0.026038  0.000000      4.000000
  0.067589  0.039058  0.000000      4.000000
  0.090119  0.052077  0.000000      4.000000
  0.112648  0.065096  0.000000      4.000000
  0.135178  0.078115  0.000000      4.000000
  0.157708  0.091134  0.000000      4.000000
  0.180237  0.104154  0.000000      4.000000
  0.202767  0.117173  0.000000      2.000000
  0.022540  0.039040  0.000000      2.000000
  0.045069  0.052059  0.000000      4.000000
  0.067599  0.065079  0.000000      4.000000
  0.090129  0.078098  0.000000      4.000000
  0.112659  0.091117  0.000000      4.000000
  0.135188  0.104136  0.000000      4.000000
  0.157718  0.117155  0.000000      4.000000
  0.180248  0.130175  0.000000      4.000000
  0.202777  0.143194  0.000000      4.000000
 -0.180227 -0.078133  0.000000      4.000000
 -0.157698 -0.065114  0.000000      4.000000
 -0.135168 -0.052094  0.000000      4.000000
 -0.112638 -0.039075  0.000000      4.000000
 -0.090109 -0.026056  0.000000      4.000000
 -0.067579 -0.013037  0.000000      4.000000
 -0.045049 -0.000018  0.000000      4.000000
 -0.022520  0.013002  0.000000      2.000000
  0.045080  0.078080  0.000000      2.000000
  0.067609  0.091099  0.000000      4.000000
  0.090139  0.104119  0.000000      4.000000
  0.112669  0.117138  0.000000      4.000000
  0.135198  0.130157  0.000000      4.000000
  0.157728  0.143176  0.000000      4.000000
  0.180258  0.156195  0.000000      4.000000
  0.202787  0.169215  0.000000      4.000000
 -0.180217 -0.052112  0.000000      4.000000
 -0.157688 -0.039093  0.000000      4.000000
 -0.135158 -0.026073  0.000000      4.000000
 -0.112628 -0.013054  0.000000      4.000000
 -0.090098 -0.000035  0.000000      4.000000
 -0.067569  0.012984  0.000000      4.000000
 -0.045039  0.026003  0.000000      2.000000
  0.067619  0.117120  0.000000      2.000000
  0.090149  0.130139  0.000000      4.000000
  0.112679  0.143159  0.000000      4.000000
  0.135208  0.156178  0.000000      4.000000
  0.157738  0.169197  0.000000      4.000000
  0.180268  0.182216  0.000000      4.000000
  0.202798  0.195236  0.000000      4.000000
 -0.180207 -0.026091  0.000000      4.000000
 -0.157677 -0.013072  0.000000      4.000000
 -0.135148 -0.000053  0.000000      4.000000
 -0.112618  0.012967  0.000000      4.000000
 -0.090088  0.025986  0.000000      4.000000
 -0.067559  0.039005  0.000000      2.000000
  0.090159  0.156160  0.000000      2.000000
  0.112689  0.169180  0.000000      4.000000
  0.135219  0.182199  0.000000      4.000000
  0.157748  0.195218  0.000000      4.000000
  0.180278  0.208237  0.000000      4.000000
[...]
  0.157769  0.247260  0.094244      4.000000
  0.180298  0.260279  0.094244      4.000000
  0.202828  0.273298  0.094244      4.000000
 -0.180177  0.051972  0.094244      4.000000
 -0.157647  0.064991  0.094244      4.000000
 -0.135117  0.078010  0.094244      2.000000
  0.157779  0.273281  0.094244      2.000000
  0.180308  0.286300  0.094244      4.000000
  0.202838  0.299319  0.094244      4.000000
 -0.180167  0.077993  0.094244      4.000000
 -0.157637  0.091012  0.094244      2.000000
  0.180318  0.312321  0.094244      2.000000
  0.202848  0.325340  0.094244      4.000000
 -0.180156  0.104013  0.094244      2.000000
  0.202858  0.351361  0.094244      1.000000

 TETIRR: Found   3888 inequivalent tetrahedra from    15552

 I would recommend the setting:
   dimension x,y,z NGX =    20 NGY =   20 NGZ =   42
 SYSTEM =  graphite
 POSCAR =  CIF file

 Startparameter for this run:
   NWRITE =      2    write-flag & timer
   PREC   = accura    normal or accurate (medium, high low for compatibility)
   ISTART =      0    job   : 0-new  1-cont  2-samecut
   ICHARG =      2    charge: 1-file 2-atom 10-const
   ISPIN  =      1    spin polarized calculation?
   LNONCOLLINEAR =      F non collinear calculations
   LSORBIT =      F    spin-orbit coupling
[...]
 k-point 29 :   0.1667 0.1111 0.0000  plane waves:     924
 k-point 30 :   0.2222 0.1111 0.0000  plane waves:     927
 k-point 31 :   0.2778 0.1111 0.0000  plane waves:     926
 k-point 32 :   0.3333 0.1111 0.0000  plane waves:     931
 k-point 33 :   0.3889 0.1111 0.0000  plane waves:     939
 k-point 34 :   0.4444 0.1111 0.0000  plane waves:     949
 k-point 35 :   0.5000 0.1111 0.0000  plane waves:     941
 k-point 36 :  -0.4444 0.1111 0.0000  plane waves:     933
 k-point 37 :  -0.3889 0.1111 0.0000  plane waves:     926
 k-point 38 :  -0.3333 0.1111 0.0000  plane waves:     927
 k-point 39 :  -0.2778 0.1111 0.0000  plane waves:     924
 k-point 40 :  -0.2222 0.1111 0.0000  plane waves:     929
 k-point 41 :  -0.1667 0.1111 0.0000  plane waves:     928
 k-point 42 :  -0.1111 0.1111 0.0000  plane waves:     927
 k-point 43 :   0.1667 0.1667 0.0000  plane waves:     923
 k-point 44 :   0.2222 0.1667 0.0000  plane waves:     926
 k-point 45 :   0.2778 0.1667 0.0000  plane waves:     929
 k-point 46 :   0.3333 0.1667 0.0000  plane waves:     941
 k-point 47 :   0.3889 0.1667 0.0000  plane waves:     949
 k-point 48 :   0.4444 0.1667 0.0000  plane waves:     949
 k-point 49 :   0.5000 0.1667 0.0000  plane waves:     941
 k-point 50 :  -0.4444 0.1667 0.0000  plane waves:     929
 k-point 51 :  -0.3889 0.1667 0.0000  plane waves:     926
 k-point 52 :  -0.3333 0.1667 0.0000  plane waves:     923
 k-point 53 :  -0.2778 0.1667 0.0000  plane waves:     924
 k-point 54 :  -0.2222 0.1667 0.0000  plane waves:     927
 k-point 55 :  -0.1667 0.1667 0.0000  plane waves:     933
 k-point 56 :   0.2222 0.2222 0.0000  plane waves:     931
 k-point 57 :   0.2778 0.2222 0.0000  plane waves:     952
 k-point 58 :   0.3333 0.2222 0.0000  plane waves:     946
 k-point 59 :   0.3889 0.2222 0.0000  plane waves:     941
 k-point 60 :   0.4444 0.2222 0.0000  plane waves:     946
[...]
 k-point 85 :   0.5000 0.3889 0.0000  plane waves:     941
 k-point 86 :  -0.4444 0.3889 0.0000  plane waves:     932
 k-point 87 :  -0.3889 0.3889 0.0000  plane waves:     930
 k-point 88 :   0.4444 0.4444 0.0000  plane waves:     949
 k-point 89 :   0.5000 0.4444 0.0000  plane waves:     936
 k-point 90 :  -0.4444 0.4444 0.0000  plane waves:     940
 k-point 91 :   0.5000 0.5000 0.0000  plane waves:     932
 k-point 92 :   0.0000 0.0000 0.1250  plane waves:     921
 k-point 93 :   0.0556-0.0000 0.1250  plane waves:     920
 k-point 94 :   0.1111-0.0000 0.1250  plane waves:     923
 k-point 95 :   0.1667-0.0000 0.1250  plane waves:     931
 k-point 96 :   0.2222 0.0000 0.1250  plane waves:     932
 k-point 97 :   0.2778 0.0000 0.1250  plane waves:     931
 k-point 98 :   0.3333-0.0000 0.1250  plane waves:     931
 k-point 99 :   0.3889 0.0000 0.1250  plane waves:     931
 k-point ** :   0.4444 0.0000 0.1250  plane waves:     934
 k-point ** :   0.5000 0.0000 0.1250  plane waves:     930
 k-point ** :   0.0556 0.0556 0.1250  plane waves:     921
 k-point ** :   0.1111 0.0556 0.1250  plane waves:     925
 k-point ** :   0.1667 0.0556 0.1250  plane waves:     932
 k-point ** :   0.2222 0.0556 0.1250  plane waves:     926
 k-point ** :   0.2778 0.0556 0.1250  plane waves:     926
 k-point ** :   0.3333 0.0556 0.1250  plane waves:     935
 k-point ** :   0.3889 0.0556 0.1250  plane waves:     932
 k-point ** :   0.4444 0.0556 0.1250  plane waves:     935
 k-point ** :   0.5000 0.0556 0.1250  plane waves:     936
 k-point ** :  -0.4444 0.0556 0.1250  plane waves:     933
 k-point ** :  -0.3889 0.0556 0.1250  plane waves:     933
 k-point ** :  -0.3333 0.0556 0.1250  plane waves:     926
 k-point ** :  -0.2778 0.0556 0.1250  plane waves:     926
 k-point ** :  -0.2222 0.0556 0.1250  plane waves:     932
 k-point ** :  -0.1667 0.0556 0.1250  plane waves:     925
 k-point ** :  -0.1111 0.0556 0.1250  plane waves:     923
 k-point ** :  -0.0556 0.0556 0.1250  plane waves:     920
 k-point ** :   0.1111 0.1111 0.1250  plane waves:     926
 k-point ** :   0.1667 0.1111 0.1250  plane waves:     925
 k-point ** :   0.2222 0.1111 0.1250  plane waves:     927
 k-point ** :   0.2778 0.1111 0.1250  plane waves:     930
 k-point ** :   0.3333 0.1111 0.1250  plane waves:     933
 k-point ** :   0.3889 0.1111 0.1250  plane waves:     940
 k-point ** :   0.4444 0.1111 0.1250  plane waves:     943
 k-point ** :   0.5000 0.1111 0.1250  plane waves:     940
 k-point ** :  -0.4444 0.1111 0.1250  plane waves:     935
 k-point ** :  -0.3889 0.1111 0.1250  plane waves:     930
 k-point ** :  -0.3333 0.1111 0.1250  plane waves:     927
 k-point ** :  -0.2778 0.1111 0.1250  plane waves:     925
 k-point ** :  -0.2222 0.1111 0.1250  plane waves:     927
 k-point ** :  -0.1667 0.1111 0.1250  plane waves:     926
 k-point ** :  -0.1111 0.1111 0.1250  plane waves:     923
 k-point ** :   0.1667 0.1667 0.1250  plane waves:     922
 k-point ** :   0.2222 0.1667 0.1250  plane waves:     926
 k-point ** :   0.2778 0.1667 0.1250  plane waves:     934
 k-point ** :   0.3333 0.1667 0.1250  plane waves:     938
 k-point ** :   0.3889 0.1667 0.1250  plane waves:     947
 k-point ** :   0.4444 0.1667 0.1250  plane waves:     947
 k-point ** :   0.5000 0.1667 0.1250  plane waves:     936
 k-point ** :  -0.4444 0.1667 0.1250  plane waves:     935
 k-point ** :  -0.3889 0.1667 0.1250  plane waves:     926
 k-point ** :  -0.3333 0.1667 0.1250  plane waves:     924
 k-point ** :  -0.2778 0.1667 0.1250  plane waves:     926
 k-point ** :  -0.2222 0.1667 0.1250  plane waves:     932
 k-point ** :  -0.1667 0.1667 0.1250  plane waves:     931
 k-point ** :   0.2222 0.2222 0.1250  plane waves:     932
 k-point ** :   0.2778 0.2222 0.1250  plane waves:     942
 k-point ** :   0.3333 0.2222 0.1250  plane waves:     943
 k-point ** :   0.3889 0.2222 0.1250  plane waves:     946
 k-point ** :   0.4444 0.2222 0.1250  plane waves:     943
 k-point ** :   0.5000 0.2222 0.1250  plane waves:     941
 k-point ** :  -0.4444 0.2222 0.1250  plane waves:     932
 k-point ** :  -0.3889 0.2222 0.1250  plane waves:     926
 k-point ** :  -0.3333 0.2222 0.1250  plane waves:     926
 k-point ** :  -0.2778 0.2222 0.1250  plane waves:     927
 k-point ** :  -0.2222 0.2222 0.1250  plane waves:     931
 k-point ** :   0.2778 0.2778 0.1250  plane waves:     947
 k-point ** :   0.3333 0.2778 0.1250  plane waves:     945
[...]
 k-point ** :   0.3889 0.3333 0.5000  plane waves:     948
 k-point ** :   0.4444 0.3333 0.5000  plane waves:     938
 k-point ** :   0.5000 0.3333 0.5000  plane waves:     934
 k-point ** :  -0.4444 0.3333 0.5000  plane waves:     938
 k-point ** :  -0.3889 0.3333 0.5000  plane waves:     932
 k-point ** :  -0.3333 0.3333 0.5000  plane waves:     932
 k-point ** :   0.3889 0.3889 0.5000  plane waves:     952
 k-point ** :   0.4444 0.3889 0.5000  plane waves:     938
 k-point ** :   0.5000 0.3889 0.5000  plane waves:     932
 k-point ** :  -0.4444 0.3889 0.5000  plane waves:     934
 k-point ** :  -0.3889 0.3889 0.5000  plane waves:     936
 k-point ** :   0.4444 0.4444 0.5000  plane waves:     932
 k-point ** :   0.5000 0.4444 0.5000  plane waves:     938
 k-point ** :  -0.4444 0.4444 0.5000  plane waves:     934
 k-point ** :   0.5000 0.5000 0.5000  plane waves:     928

 maximum and minimum number of plane-waves per node :       326      295

 maximum number of plane-waves:       958
 maximum index in each direction:
   IXMAX=    5   IYMAX=    4   IZMAX=   10
   IXMIN=   -5   IYMIN=   -5   IZMIN=  -11

 WARNING: aliasing errors must be expected set NGX to  22 to avoid them
 NGY is ok and might be reduce to  20
 WARNING: aliasing errors must be expected set NGZ to  44 to avoid them
 aliasing errors are usually negligible using standard VASP settings
 and one can safely disregard these warnings

 parallel 3D FFT for wavefunctions:
    minimum data exchange during FFTs selected (reduces bandwidth)
 parallel 3D FFT for charge:
    minimum data exchange during FFTs selected (reduces bandwidth)

 Broyden mixing: mesh for mixing (old mesh)
   NGX =  9   NGY =  9   NGZ = 21
  (NGX  = 40   NGY  = 40   NGZ  = 84)
  gives a total of   1701 points

 initial charge density was supplied:
 charge density of overlapping atoms calculated
 number of electron      16.0000000 magnetization
 keeping initial charge density in first step

 Maximum index for augmentation-charges         1297 (set IRDMAX)

 First call to EWALD:  gamma=   0.584
 Maximum number of real-space cells 4x 4x 2
 Maximum number of reciprocal cells 2x 2x 4

 FEWALD executed in parallel

----------------------------------------- Iteration    1(   1)  ---------------------------------------

 BZINTS: Fermi energy: 16.266930; 16.000000 electrons
         Band energy:  21.608649;  BLOECHL correction: -0.659907

 eigenvalue-minimisations  : 10928
 total energy-change (2. order) : 0.4336715E+02  (-0.9334074E+03)
 number of electron      16.0000000 magnetization
 augmentation part       16.0000000 magnetization

 Free energy of the ion-electron system (eV)
  alpha Z        PSCENC =        46.66359017
  Ewald energy   TEWEN  =      -589.60923891
  -Hartree energ DENC   =       -75.39590800
  -exchange      EXHF   =         0.00000000
  -V(xc)+E(xc)   XCENC  =        56.10082518
  PAW double counting   =       151.32577238     -155.92769107
  entropy T*S    EENTRO =         0.00000000
  eigenvalues    EBANDS =        21.60864904
  atomic energy  EATOM  =       588.60115103
  free energy    TOTEN  =        43.36714983 eV

  energy without entropy =       43.36714983  energy(sigma->0) =       43.36714983

[...]

 eigenvalue-minimisations  : 15128
 total energy-change (2. order) :-0.7865646E+02  (-0.7230678E+02)
 number of electron      16.0000000 magnetization
 augmentation part       16.0000000 magnetization

[...]

 Broyden mixing:
  rms(total) = 0.77852E+00    rms(broyden)= 0.77843E+00
  rms(prec ) = 0.14141E+01
  weight for this iteration     100.00

[...]

 eigenvalues of (default mixing * dielectric matrix)
  average eigenvalue GAMMA=   2.0427
  2.0427

[...]

 eigenvalue-minimisations  : 13244
 total energy-change (2. order) :-0.2702506E-05  (-0.5279350E-06)
 number of electron      16.0000001 magnetization
 augmentation part        0.3849698 magnetization

 Broyden mixing:
  rms(total) = 0.99469E-04    rms(broyden)= 0.99363E-04
  rms(prec ) = 0.17101E-03
  weight for this iteration     100.00

 eigenvalues of (default mixing * dielectric matrix)
  average eigenvalue GAMMA=   1.9545
  2.8647  2.4467  2.4467  1.9254  0.9697  1.0737

[...]

----------------------------------------- Iteration    1(  12)  ---------------------------------------

 BZINTS: Fermi energy:  6.908055; 16.000000 electrons
         Band energy: -33.080885;  BLOECHL correction: -0.000626

 eigenvalue-minimisations  :  8112
 total energy-change (2. order) : 0.1854718E-06  (-0.1234505E-07)
 number of electron      16.0000001 magnetization
 augmentation part        0.3849698 magnetization

 Free energy of the ion-electron system (eV)
  alpha Z        PSCENC =        46.66359017
  Ewald energy   TEWEN  =      -589.60923891
  -Hartree energ DENC   =      -101.73425829
  -exchange      EXHF   =         0.00000000
  -V(xc)+E(xc)   XCENC  =        58.14292722
  PAW double counting   =       279.49385578     -284.67068969
  entropy T*S    EENTRO =         0.00000000
  eigenvalues    EBANDS =       -33.08088547
  atomic energy  EATOM  =       588.60115103
  free energy    TOTEN  =       -36.19354814 eV

  energy without entropy =      -36.19354814  energy(sigma->0) =      -36.19354814

 average (electrostatic) potential at core
  the test charge radii are     0.6991
  (the norm of the test charge is              1.0000)
       1 -48.3749       2 -48.3749       3 -48.1853       4 -48.1853

 E-fermi :   6.9081     XC(G=0): -11.8998     alpha+bet :-14.3733

 k-point     1 :       0.0000    0.0000    0.0000
  band No.  band energies     occupation
      1     -13.1855      2.00000
      2     -11.7256      2.00000
      3      -2.8787      2.00000
      4       2.6553      2.00000
      5       3.9822      2.00000
      6       4.0005      2.00000
      7       4.1447      2.00000
      8       4.1580      2.00000
      9      14.7342      0.00000
     10      15.2356      0.00000
     11      15.2454      0.00000
     12      15.5545      0.00000

[...]

 k-point   455 :       0.5000    0.5000    0.5000
  band No.  band energies     occupation
      1      -7.2634      2.00000
      2      -7.2634      2.00000
      3      -6.2181      2.00000
      4      -6.2181      2.00000
      5       0.6941      2.00000
      6       0.6941      2.00000
      7       4.7097      2.00000
      8       4.7097      2.00000
      9       8.6611      0.00000
     10       8.6611      0.00000
     11      14.4001      0.00000
     12      14.4001      0.00000

 soft charge-density along one line, spin component           1
         0         1         2         3         4         5         6         7         8         9
 total charge-density along one line

------------------------ aborting loop because EDIFF is reached ----------------------------------------

         DFTD3 V3.0 Rev 1
 IVDW         = 12
 DF pbe
 parameters
 VDW_S6       =    1.0000
 VDW_S8       =    0.7875
 VDW_A1       =    0.4289
 VDW_A2       =    4.4407
 k1-k3        =   16.0000    1.3333   -4.0000
 VDW_RADIUS   =   50.2022 A
 VDW_CNRADIUS =   21.1671 A
 Edisp (eV)   -0.79482

 E6    (eV) :    -0.5650
 E8    (eV) :    -0.2298
 % E8        : 28.91

  FORCE on cell =-STRESS in cart. coord.  units (eV):
  Direction    XX          YY          ZZ          XY          YZ          ZX
  Alpha Z    46.66359    46.66359    46.66359
  Ewald     -50.82199   -50.89491  -487.89244    -0.06314    -0.00000     0.00000
  Hartree    79.49478    79.48624   -57.24707    -0.00739    -0.00000    -0.00000
  E(xc)     -58.92597   -58.92689   -60.51739    -0.00080    -0.00000    -0.00000
  Local    -242.14305  -242.07024   299.60222     0.06305     0.00000     0.00000
  n-local   -14.34602   -13.53166   -13.30427    -0.25106     0.03073    -0.02565
  augment    -1.55743    -1.55735    -1.42429     0.00007     0.00000     0.00000
  Kinetic   244.59398   237.41150   280.00358     2.17236    -0.34620     0.27012
  Fock        0.00000     0.00000     0.00000     0.00000     0.00000     0.00000
  vdW         0.10476     0.10675    -0.55561     0.00172    -0.00000     0.00000
  Total      -0.15735    -0.09298     5.32830     0.05575    -0.00000     0.00000
  in kB      -9.02382    -5.33198   305.56660     3.19722    -0.00000     0.00000

 VOLUME and BASIS-vectors are now :
  energy-cutoff  :      600.00
  volume of cell :       27.94
      direct lattice vectors                 reciprocal lattice vectors
     2.466437249 -0.000959643  0.000000000     0.405534294  0.234345762  0.000000000
    -1.234049700  2.135517493  0.000000000     0.000182236  0.468375882  0.000000000
     0.000000000  0.000000000  5.305400583     0.000000000  0.000000000  0.188487181

  length of vectors
     2.466437436  2.466437436  5.305400583     0.468375917  0.468375917  0.188487181

 FORCES acting on ions
    electron-ion (+dipol)            ewald-force                    non-local-force                 convergence-correction
   -.106E+00 0.612E-01 0.687E-12   0.102E+00 -.587E-01 -.147E-13   -.558E-02 0.322E-02 0.173E-17   -.825E-06 0.476E-06 -.708E-13
   0.106E+00 -.612E-01 0.221E-12   -.102E+00 0.587E-01 0.147E-13   0.558E-02 -.322E-02 -.173E-17   0.825E-06 -.477E-06 0.702E-13
   0.968E-01 -.559E-01 0.921E-12   -.977E-01 0.564E-01 -.146E-13   0.347E-02 -.201E-02 0.694E-17   0.889E-06 -.513E-06 -.700E-13
   -.968E-01 0.559E-01 -.552E-12   0.977E-01 -.564E-01 0.146E-13   -.347E-02 0.201E-02 -.347E-17   -.889E-06 0.513E-06 0.687E-13
   -.680E-05 -.118E-04 0.128E-11   -.114E-13 0.346E-14 0.000E+00   -.111E-15 0.000E+00 0.347E-17   -.220E-10 -.382E-10 -.193E-14

 POSITION                                       TOTAL-FORCE (eV/Angst)
      2.46402      0.00044      1.32635        -0.010055      0.005805      0.000000
     -1.23163      2.13412      3.97905         0.010055     -0.005805     -0.000000
     -0.00332      1.42496      1.32635         0.002732     -0.001577      0.000000
      1.23571      0.70960      3.97905        -0.002732      0.001577      0.000000
    total drift:                               -0.000007     -0.000012      0.000000

  FREE ENERGIE OF THE ION-ELECTRON SYSTEM (eV)
  free  energy   TOTEN  =       -36.98836640 eV

  energy  without entropy=      -36.98836640  energy(sigma->0) =      -36.98836640

 reached required accuracy - stopping structural energy minimisation
 BZINTS: Fermi energy:  6.908055; 16.000000 electrons
         Band energy: -33.080885;  BLOECHL correction: -0.000626