 vasp.5.3.5 31Mar14 (build Nov 02 2014 15:17:37) complex

 executed on        ion-Intel-MKL date 2016.08.14  02:04:33

 INCAR:
 POTCAR:   PAW_PBE C 08Apr2002

 POTCAR:   PAW_PBE C 08Apr2002
   VRHFIN =C: s2p2

   TITEL  = PAW_PBE C 08Apr2002
   POMASS =   12.011; ZVAL   =    4.000    mass and valenz
   ENMAX  =  400.000; ENMIN  =  300.000 eV
   QCUT   =   -5.516; QGAM   =   11.032    optimization parameters

   Description
     l     E      TYP  RCUT    TYP  RCUT
     0   .000     23  1.200
     0   .000     23  1.200
     1   .000     23  1.500
     1  2.500     23  1.500
     2   .000      7  1.500

 PAW_PBE C 08Apr2002                    :

 POSCAR: C
  positions in direct lattice
 exchange correlation table for  LEXCH =        8
   RHO(1)=    0.500       N(1)  =     2000
   RHO(2)=  100.500       N(2)  =     4000

 ion  position               nearest neighbor table
   1  0.501  0.000  0.126-  20 1.42  18 1.42  19 1.43  12 2.01  16 2.03
   2  1.000  0.000  0.125-  19 1.42  17 1.42  20 1.42  15 2.02  11 2.02
   3  0.500  0.500  0.125-  18 1.42  20 1.42  17 1.42  14 2.02  10 2.02
   4  1.000  0.500  0.125-  17 1.42  19 1.42  18 1.42  13 2.02   9 2.02
   5  0.500  0.000  0.625-  24 1.42  22 1.42  23 1.42  16 2.02  12 2.02
   6  1.000  0.000  0.625-  23 1.42  21 1.42  24 1.42  15 2.02  11 2.02
   7  0.500  0.500  0.625-  22 1.42  24 1.42  21 1.42  14 2.02  10 2.02
   8  1.000  0.500  0.625-  21 1.42  23 1.42  22 1.42  13 2.02   9 2.02
   9  0.000  0.500  0.375-  28 1.42  27 1.42  26 1.42   8 2.02   4 2.02
  10  0.500  0.500  0.375-  27 1.42  28 1.42  25 1.42   7 2.02   3 2.02
  11  0.000  1.000  0.375-  26 1.42  25 1.42  28 1.42   6 2.02   2 2.02
  12  0.500  1.000  0.375-  25 1.42  26 1.42  27 1.42   1 2.01   5 2.02
  13  0.000  0.500  0.875-  32 1.42  31 1.42  30 1.42   8 2.02   4 2.02
  14  0.500  0.500  0.875-  31 1.42  32 1.42  29 1.42   7 2.02   3 2.02
  15  0.000  1.000  0.875-  30 1.42  29 1.42  32 1.42   6 2.02   2 2.02
  16  0.500  1.000  0.875-  29 1.42  30 1.42  31 1.42   5 2.02   1 2.03
  17  0.167  0.333  0.125-   4 1.42   2 1.42   3 1.42
  18  0.667  0.333  0.125-   3 1.42   4 1.42   1 1.42
  19  0.167  0.833  0.125-   2 1.42   4 1.42   1 1.43
  20  0.667  0.833  0.125-   1 1.42   3 1.42   2 1.42
  21  0.167  0.333  0.625-   8 1.42   6 1.42   7 1.42
  22  0.667  0.333  0.625-   7 1.42   5 1.42   8 1.42
  23  0.167  0.833  0.625-   6 1.42   8 1.42   5 1.42
  24  0.667  0.833  0.625-   5 1.42   7 1.42   6 1.42
  25  0.333  0.167  0.375-  12 1.42  11 1.42  10 1.42
  26  0.833  0.167  0.375-  11 1.42  12 1.42   9 1.42
  27  0.333  0.667  0.375-  10 1.42   9 1.42  12 1.42
  28  0.833  0.667  0.375-   9 1.42  10 1.42  11 1.42
  29  0.333  0.167  0.875-  16 1.42  15 1.42  14 1.42
  30  0.833  0.167  0.875-  15 1.42  16 1.42  13 1.42
  31  0.333  0.667  0.875-  14 1.42  13 1.42  16 1.42
  32  0.833  0.667  0.875-  13 1.42  14 1.42  15 1.42

  LATTYP: Found a base centered orthorhombic cell.
 ALAT       =     4.9339256766
 B/A-ratio  =     1.7322311103
 C/A-ratio  =     1.6357949639

  Lattice vectors:

 A1 = (   4.9343108848,  -0.0002224000,   0.0000000000)
 A2 = (  -2.4673480464,   4.2731273763,   0.0000000000)
 A3 = (   0.0000000000,   0.0000000000,   8.0708907740)

Analysis of symmetry for initial positions (statically):
 Subroutine PRICEL returns:
 Original cell was already a primitive cell.

 Routine SETGRP: Setting up the symmetry group for a
 base centered orthorhombic supercell.

 Subroutine GETGRP returns: Found  1 space group operations
 (whereof  1 operations were pure point group operations)
 out of a pool of  8 trial point group operations.

The static configuration has the point symmetry C_1 .

Analysis of symmetry for dynamics (positions and initial velocities):
 Subroutine PRICEL returns:
 Original cell was already a primitive cell.

 Routine SETGRP: Setting up the symmetry group for a
 base centered orthorhombic supercell.

 Subroutine GETGRP returns: Found  1 space group operations
 (whereof  1 operations were pure point group operations)
 out of a pool of  8 trial point group operations.

The dynamic configuration has the point symmetry C_1 .

 KPOINTS: B4C B11C-CBC

Automatic generation of k-mesh.
Space group operators:
 irot       det(A)        alpha          n_x          n_y          n_z        tau_x        tau_y        tau_z
    1     1.000000     0.000000     1.000000     0.000000     0.000000     0.000000     0.000000     0.000000

 Subroutine IBZKPT returns following result:

 Found    163 irreducible k-points:

 Following reciprocal coordinates:
            Coordinates               Weight
  0.000000  0.000000  0.000000      1.000000
  0.111111 -0.000000  0.000000      2.000000
  0.222222 -0.000000  0.000000      2.000000
  0.333333  0.000000  0.000000      2.000000
  0.444444 -0.000000  0.000000      2.000000
  0.000000  0.111111  0.000000      2.000000
  0.111111  0.111111  0.000000      2.000000
  0.222222  0.111111  0.000000      2.000000
  0.333333  0.111111  0.000000      2.000000
  0.444444  0.111111  0.000000      2.000000
 -0.444444  0.111111  0.000000      2.000000
 -0.333333  0.111111  0.000000      2.000000
 -0.222222  0.111111  0.000000      2.000000
 -0.111111  0.111111  0.000000      2.000000
 -0.000000  0.222222  0.000000      2.000000
  0.111111  0.222222  0.000000      2.000000
  0.222222  0.222222  0.000000      2.000000
  0.333333  0.222222  0.000000      2.000000
  0.444444  0.222222  0.000000      2.000000
 -0.444444  0.222222  0.000000      2.000000
 -0.333333  0.222222  0.000000      2.000000
 -0.222222  0.222222  0.000000      2.000000
 -0.111111  0.222222  0.000000      2.000000
  0.000000  0.333333  0.000000      2.000000
  0.111111  0.333333  0.000000      2.000000
  0.222222  0.333333  0.000000      2.000000
  0.333333  0.333333  0.000000      2.000000
  0.444444  0.333333  0.000000      2.000000
 -0.444444  0.333333  0.000000      2.000000
 -0.333333  0.333333  0.000000      2.000000
 -0.222222  0.333333  0.000000      2.000000
 -0.111111  0.333333  0.000000      2.000000
 -0.000000  0.444444  0.000000      2.000000
  0.111111  0.444444  0.000000      2.000000
  0.222222  0.444444  0.000000      2.000000
  0.333333  0.444444  0.000000      2.000000
  0.444444  0.444444  0.000000      2.000000
 -0.444444  0.444444  0.000000      2.000000
 -0.333333  0.444444  0.000000      2.000000
 -0.222222  0.444444  0.000000      2.000000
 -0.111111  0.444444  0.000000      2.000000
  0.000000  0.000000  0.250000      2.000000
  0.111111 -0.000000  0.250000      2.000000
  0.222222 -0.000000  0.250000      2.000000
  0.333333  0.000000  0.250000      2.000000
  0.444444 -0.000000  0.250000      2.000000
 -0.444444  0.000000  0.250000      2.000000
 -0.333333 -0.000000  0.250000      2.000000
 -0.222222  0.000000  0.250000      2.000000
 -0.111111  0.000000  0.250000      2.000000
  0.000000  0.111111  0.250000      2.000000
  0.111111  0.111111  0.250000      2.000000
  0.222222  0.111111  0.250000      2.000000
  0.333333  0.111111  0.250000      2.000000
  0.444444  0.111111  0.250000      2.000000
 -0.444444  0.111111  0.250000      2.000000
 -0.333333  0.111111  0.250000      2.000000
 -0.222222  0.111111  0.250000      2.000000
 -0.111111  0.111111  0.250000      2.000000
 -0.000000  0.222222  0.250000      2.000000
[...]
  0.333333  0.333333  0.500000      2.000000
  0.444444  0.333333  0.500000      2.000000
 -0.444444  0.333333  0.500000      2.000000
 -0.333333  0.333333  0.500000      2.000000
 -0.222222  0.333333  0.500000      2.000000
 -0.111111  0.333333  0.500000      2.000000
 -0.000000  0.444444  0.500000      2.000000
  0.111111  0.444444  0.500000      2.000000
  0.222222  0.444444  0.500000      2.000000
  0.333333  0.444444  0.500000      2.000000
  0.444444  0.444444  0.500000      2.000000
 -0.444444  0.444444  0.500000      2.000000
 -0.333333  0.444444  0.500000      2.000000
 -0.222222  0.444444  0.500000      2.000000
 -0.111111  0.444444  0.500000      2.000000

 Following cartesian coordinates:
            Coordinates               Weight
  0.000000  0.000000  0.000000      1.000000
  0.022519  0.013002  0.000000      2.000000
  0.045037  0.026005  0.000000      2.000000
  0.067556  0.039007  0.000000      2.000000
  0.090075  0.052010  0.000000      2.000000
  0.000001  0.026003  0.000000      2.000000
  0.022520  0.039005  0.000000      2.000000
  0.045038  0.052008  0.000000      2.000000
  0.067557  0.065010  0.000000      2.000000
  0.090076  0.078013  0.000000      2.000000
 -0.090073 -0.026007  0.000000      2.000000
 -0.067555 -0.013005  0.000000      2.000000
 -0.045036 -0.000002  0.000000      2.000000
 -0.022517  0.013000  0.000000      2.000000
  0.000002  0.052006  0.000000      2.000000
  0.022521  0.065008  0.000000      2.000000
  0.045040  0.078011  0.000000      2.000000
  0.067558  0.091013  0.000000      2.000000
  0.090077  0.104016  0.000000      2.000000
 -0.090072 -0.000004  0.000000      2.000000
 -0.067554  0.012998  0.000000      2.000000
 -0.045035  0.026001  0.000000      2.000000
 -0.022516  0.039003  0.000000      2.000000
  0.000004  0.078009  0.000000      2.000000
  0.022522  0.091011  0.000000      2.000000
  0.045041  0.104014  0.000000      2.000000
  0.067559  0.117016  0.000000      2.000000
  0.090078  0.130019  0.000000      2.000000
 -0.090071  0.025999  0.000000      2.000000
 -0.067552  0.039001  0.000000      2.000000
 -0.045034  0.052004  0.000000      2.000000
 -0.022515  0.065006  0.000000      2.000000
  0.000005  0.104012  0.000000      2.000000
  0.022523  0.117014  0.000000      2.000000
  0.045042  0.130017  0.000000      2.000000
  0.067561  0.143019  0.000000      2.000000
  0.090079  0.156022  0.000000      2.000000
 -0.090070  0.052002  0.000000      2.000000
 -0.067551  0.065004  0.000000      2.000000
 -0.045033  0.078007  0.000000      2.000000
 -0.022514  0.091009  0.000000      2.000000
  0.000000  0.000000  0.030976      2.000000
  0.022519  0.013002  0.030976      2.000000
  0.045037  0.026005  0.030976      2.000000
  0.067556  0.039007  0.030976      2.000000
  0.090075  0.052010  0.030976      2.000000
 -0.090075 -0.052010  0.030976      2.000000
 -0.067556 -0.039007  0.030976      2.000000
 -0.045037 -0.026005  0.030976      2.000000
 -0.022519 -0.013002  0.030976      2.000000
  0.000001  0.026003  0.030976      2.000000
  0.022520  0.039005  0.030976      2.000000
  0.045038  0.052008  0.030976      2.000000
  0.067557  0.065010  0.030976      2.000000
  0.090076  0.078013  0.030976      2.000000
 -0.090073 -0.026007  0.030976      2.000000
 -0.067555 -0.013005  0.030976      2.000000
 -0.045036 -0.000002  0.030976      2.000000
 -0.022517  0.013000  0.030976      2.000000
  0.000002  0.052006  0.030976      2.000000
[...]
  0.067559  0.117016  0.061951      2.000000
  0.090078  0.130019  0.061951      2.000000
 -0.090071  0.025999  0.061951      2.000000
 -0.067552  0.039001  0.061951      2.000000
 -0.045034  0.052004  0.061951      2.000000
 -0.022515  0.065006  0.061951      2.000000
  0.000005  0.104012  0.061951      2.000000
  0.022523  0.117014  0.061951      2.000000
  0.045042  0.130017  0.061951      2.000000
[...]

[...]

----------------------------------------- Iteration    1(  13)  ---------------------------------------

 eigenvalue-minimisations  : 19500
 total energy-change (2. order) :-0.3948235E-06  (-0.1300456E-06)
 number of electron     128.0000010 magnetization
 augmentation part        3.1350600 magnetization

 Free energy of the ion-electron system (eV)
  alpha Z        PSCENC =       490.30840325
  Ewald energy   TEWEN  =     -5655.84027598
  -Hartree energ DENC   =      -402.12128030
  -exchange      EXHF   =         0.00000000
  -V(xc)+E(xc)   XCENC  =       477.95925052
  PAW double counting   =      2303.00170108    -2344.89271643
  entropy T*S    EENTRO =        -0.03053665
  eigenvalues    EBANDS =       164.68324906
  atomic energy  EATOM  =      4708.80920826
  free energy    TOTEN  =      -258.12299718 eV

  energy without entropy =     -258.09246053  energy(sigma->0) =     -258.10772885

 average (electrostatic) potential at core
  the test charge radii are     0.6991
  (the norm of the test charge is              1.0000)
       1 -45.0159       2 -45.0157       3 -45.0187       4 -45.0127       5 -45.0158
       6 -45.0158       7 -45.0153       8 -45.0164       9 -45.0177      10 -45.0169
      11 -45.0173      12 -45.0227      13 -45.0148      14 -45.0140      15 -45.0144
      16 -45.0091      17 -44.4041      18 -44.4041      19 -44.4077      20 -44.4004
      21 -44.4041      22 -44.4042      23 -44.4050      24 -44.4033      25 -44.4054
      26 -44.4058      27 -44.4055      28 -44.4081      29 -44.4028      30 -44.4030
      31 -44.4029      32 -44.4002

 E-fermi :  11.7077     XC(G=0): -13.6426     alpha+bet :-18.8781

 k-point     1 :       0.0000    0.0000    0.0000
  band No.  band energies     occupation
      1     -11.7668      2.00000
      2      -9.9845      2.00000
      3      -9.9777      2.00000
      4      -6.2610      2.00000
      5      -6.0701      2.00000
      6      -6.0700      2.00000
      7      -6.0695      2.00000
      8      -5.0943      2.00000
      9      -5.0919      2.00000
     10      -5.0902      2.00000
     11      -4.5048      2.00000
     12      -4.4977      2.00000
     13      -4.4962      2.00000
     14      -4.4959      2.00000
     15      -4.4944      2.00000
     16      -4.4873      2.00000
     17      -3.4108      2.00000
     18      -3.4075      2.00000
     19      -3.4054      2.00000
     20      -3.4038      2.00000
     21      -3.4008      2.00000
     22      -3.3984      2.00000
     23      -1.8421      2.00000
     24      -1.1465      2.00000
     25      -1.1451      2.00000
     26      -1.1442      2.00000
     27      -0.9919      2.00000
     28      -0.9888      2.00000
     29      -0.9863      2.00000
     30       2.8716      2.00000
     31       2.8745      2.00000
     32       2.8792      2.00000
     33       3.9047      2.00000
     34       3.9104      2.00000
     35       3.9118      2.00000
     36       3.9123      2.00000
     37       3.9136      2.00000
     38       3.9200      2.00000
     39       3.9553      2.00000
     40       3.9560      2.00000
     41       3.9567      2.00000
     42       4.9377      2.00000
     43       4.9465      2.00000
     44       5.1703      2.00000
     45       5.1739      2.00000
     46       5.1791      2.00000
     47       6.8222      2.00000
     48       6.8353      2.00000
     49       7.2396      2.00000
     50       7.2414      2.00000
     51       7.2421      2.00000
     52       7.3561      2.00000
     53       7.3649      2.00000
     54       7.3692      2.00000
     55       7.3798      2.00000
     56       7.8669      2.00000
     57       7.8814      2.00000
     58       9.3986      2.00000
     59       9.4142      2.00000
     60       9.4145      2.00000
[...]
     70      12.3445      0.00000
     71      14.8292      0.00000
     72      14.8339      0.00000
     73      14.8395      0.00000
     74      14.9091      0.00000
     75      14.9098      0.00000
     76      14.9117      0.00000
     77      17.8063      0.00000
     78      17.8090      0.00000
     79      17.8108      0.00000
     80      18.0188      0.00000
     81      18.0372      0.00000
     82      18.0483      0.00000
     83      18.0510      0.00000
     84      18.0605      0.00000

[...]

 k-point   163 :      -0.1111    0.4444    0.5000
  band No.  band energies     occupation
      1     -10.3111      2.00000
      2     -10.3041      2.00000
      3      -8.9342      2.00000
      4      -8.9273      2.00000
      5      -7.5870      2.00000
      6      -7.5801      2.00000
      7      -6.9719      2.00000
      8      -6.9692      2.00000
      9      -5.6978      2.00000
     10      -5.6954      2.00000
     11      -5.6635      2.00000
     12      -5.6566      2.00000
     13      -4.4690      2.00000
     14      -4.4669      2.00000
     15      -3.1390      2.00000
     16      -3.1349      2.00000
     17      -2.4849      2.00000
     18      -2.4798      2.00000
     19      -1.0982      2.00000
     20      -1.0916      2.00000
     21      -0.8421      2.00000
     22      -0.8397      2.00000
     23       0.1854      2.00000
     24       0.1914      2.00000
     25       0.4484      2.00000
     26       0.4502      2.00000
     27       0.7838      2.00000
     28       0.7863      2.00000
     29       1.6360      2.00000
     30       1.6427      2.00000
     31       1.9938      2.00000
     32       1.9960      2.00000
     33       2.0906      2.00000
     34       2.0936      2.00000
     35       2.2755      2.00000
     36       2.2775      2.00000
     37       3.2904      2.00000
     38       3.2980      2.00000
     39       3.4176      2.00000
     40       3.4232      2.00000
     41       3.4812      2.00000
     42       3.4849      2.00000
     43       3.8095      2.00000
     44       3.8147      2.00000
     45       4.5821      2.00000
     46       4.5911      2.00000
     47       4.7721      2.00000
     48       4.7784      2.00000
     49       5.3664      2.00000
     50       5.3675      2.00000
     51       5.3785      2.00000
     52       5.3857      2.00000
     53       6.3333      2.00000
     54       6.3453      2.00000
     55       6.3913      2.00000
     56       6.3931      2.00000
     57       9.9729      2.00000
     58       9.9767      2.00000
     59      10.1280      2.00000
     60      10.1338      2.00000
[...]
     70      13.7953      0.00000
     71      15.5050      0.00000
     72      15.5231      0.00000
     73      16.0355      0.00000
     74      16.0448      0.00000
     75      16.0637      0.00000
     76      16.0771      0.00000
     77      16.2448      0.00000
     78      16.2541      0.00000
     79      17.5351      0.00000
     80      17.5443      0.00000
     81      18.1713      0.00000
     82      18.1804      0.00000
     83      19.1770      0.00000
     84      19.1839      0.00000

 soft charge-density along one line, spin component           1
         0         1         2         3         4         5         6         7         8         9
 total charge-density along one line

------------------------ aborting loop because EDIFF is reached ----------------------------------------

         DFTD3 V3.0 Rev 1
 IVDW         = 11
 DF pbe
 parameters
 VDW_S6       =    1.0000
 VDW_S8       =    0.7220
 VDW_SR       =    1.2170
 rs18     =    1.0000
 alpha6   =   14.0000
 alpha8   =   16.0000
 k1-k3    =   16.0000    1.3333   -4.0000
 VDW_RADIUS   =   50.2022 A
 VDW_CNRADIUS =   21.1671 A
 Edisp (eV)   -3.76278

 E6    (eV) :    -2.3155
 E8    (eV) :    -1.4473
 % E8        : 38.46

  FORCE on cell =-STRESS in cart. coord.  units (eV):
  Direction    XX          YY          ZZ          XY          YZ          ZX
  Alpha Z   490.30840   490.30840   490.30840
  Ewald   -1318.75257 -1319.15382 -3017.95708    -1.42404     0.00009    -0.01288
  Hartree   231.70089   231.65187   -61.23055    -0.17813    -0.00000    -0.00278
  E(xc)    -483.45802  -483.45979  -489.17410    -0.00518    -0.00000    -0.00003
  Local    -761.93105  -761.55571  1036.10227     1.32976    -0.00005     0.01313
  n-local  -106.47013  -106.48543  -124.43707    -0.02199    -0.00000     0.00020
  augment   -12.84451   -12.84384   -11.71670     0.00232    -0.00000     0.00002
  Kinetic  1972.21270  1972.34354  2375.07917     0.29620     0.00004    -0.00005
  Fock        0.00000     0.00000     0.00000     0.00000     0.00000     0.00000
  vdW        -3.26777    -3.26765    -3.07057     0.00016     0.00000     0.00000
  Total       7.49794     7.53758   193.90376    -0.00091     0.00007    -0.00237
  in kB      70.59438    70.96755  1825.63646    -0.00858     0.00065    -0.02235

 VOLUME and BASIS-vectors are now :
  energy-cutoff  :      600.00
  volume of cell :      170.17
      direct lattice vectors                 reciprocal lattice vectors
     4.934310885 -0.000222400  0.000000000     0.202667819  0.117022500  0.000000000
    -2.467348046  4.273127376  0.000000000     0.000010548  0.234026730  0.000000000
     0.000000000  0.000000000  8.070890774     0.000000000  0.000000000  0.123902061

  length of vectors
     4.934310890  4.934310890  8.070890774     0.234026730  0.234026730  0.123902061

 FORCES acting on ions
    electron-ion (+dipol)            ewald-force                    non-local-force                 convergence-correction
   0.112E+01 -.633E-02 0.248E+00   -.128E+01 0.101E-01 -.326E+00   -.137E+00 0.165E-02 -.533E-02   -.280E-03 -.699E-04 0.564E-04
   -.323E+00 0.247E-03 0.281E+00   0.326E+00 0.173E-02 -.276E+00   0.264E-01 0.128E-02 -.890E-02   0.351E-03 -.581E-04 0.219E-04
   -.460E-01 0.160E+00 0.281E+00   0.254E-01 -.172E+00 -.276E+00   0.552E-02 -.109E-01 -.889E-02   -.325E-04 -.156E-03 0.267E-04
   -.463E-01 -.160E+00 0.281E+00   0.254E-01 0.176E+00 -.276E+00   0.551E-02 0.133E-01 -.890E-02   -.144E-04 0.290E-03 0.256E-04
   0.962E-02 0.420E-03 -.172E+00   -.117E-01 0.175E-02 0.173E+00   -.220E-02 0.121E-02 0.293E-02   -.385E-03 -.835E-04 0.478E-05
   -.102E-01 0.517E-03 -.135E+00   0.521E-02 0.175E-02 0.136E+00   -.714E-03 0.121E-02 0.761E-02   0.387E-03 -.701E-04 -.149E-04
   0.544E-03 0.646E-02 -.135E+00   -.297E-02 -.298E-02 0.136E+00   -.115E-02 0.941E-03 0.768E-02   -.104E-04 -.143E-03 -.182E-04
   0.721E-03 -.603E-02 -.135E+00   -.298E-02 0.647E-02 0.136E+00   -.116E-02 0.145E-02 0.752E-02   0.118E-04 0.301E-03 -.177E-04
   0.361E-02 -.436E-01 -.583E-01   0.628E-02 0.370E-01 0.619E-01   0.107E-02 -.258E-02 -.317E-02   -.738E-05 0.302E-03 0.156E-04
   -.108E-01 0.345E-01 -.592E-01   0.630E-02 -.405E-01 0.619E-01   0.180E-02 0.603E-03 -.106E-01   -.107E-05 -.106E-03 -.438E-04
   -.711E-01 0.803E-02 -.590E-01   0.734E-01 -.178E-02 0.621E-01   -.133E-02 -.163E-02 -.690E-02   0.344E-03 -.101E-03 -.726E-05
   0.108E+00 -.263E-03 -.470E+00   -.109E+00 -.177E-02 0.509E+00   0.463E-03 -.119E-02 -.576E-01   -.334E-03 -.978E-04 -.350E-04
   -.108E-01 -.345E-01 -.602E-01   0.618E-02 0.362E-01 0.628E-01   0.191E-02 -.297E-02 -.105E-01   0.203E-04 0.291E-03 -.229E-04
   0.393E-02 0.422E-01 -.592E-01   0.620E-02 -.397E-01 0.628E-01   0.105E-02 0.755E-04 -.322E-02   -.263E-04 -.134E-03 0.369E-04
   -.698E-01 -.875E-02 -.595E-01   0.719E-01 -.178E-02 0.625E-01   -.116E-02 -.712E-03 -.687E-02   0.357E-03 -.678E-04 0.152E-05
   0.105E+00 -.265E-03 -.467E+00   -.106E+00 -.177E-02 0.504E+00   0.167E-03 -.119E-02 -.549E-01   -.349E-03 -.936E-04 -.308E-04
   -.117E+00 0.188E-03 0.216E+00   0.121E+00 -.233E-02 -.234E+00   0.341E-02 -.129E-02 0.263E-01   0.760E-04 0.286E-04 0.109E-04
   0.365E+00 0.871E-02 0.683E+00   -.346E+00 -.114E-01 -.739E+00   0.391E-01 -.962E-03 0.552E-01   -.277E-04 0.299E-04 0.456E-04
   -.503E+00 -.498E+00 0.678E+00   0.590E+00 0.535E+00 -.732E+00   0.319E-01 -.531E-02 0.550E-01   -.343E-04 -.377E-04 0.395E-04
   -.494E+00 0.499E+00 0.689E+00   0.582E+00 -.541E+00 -.745E+00   0.337E-01 0.197E-02 0.554E-01   -.361E-04 -.129E-04 0.523E-04
   -.389E-02 0.718E-03 -.135E+00   0.902E-02 -.286E-02 0.132E+00   0.276E-02 -.128E-02 0.406E-02   0.296E-04 0.369E-04 -.129E-04
   -.517E-03 0.533E-03 -.145E+00   0.778E-03 -.279E-02 0.149E+00   0.192E-02 -.131E-02 -.109E-01   -.312E-04 0.302E-04 -.131E-04
   -.136E-02 0.305E-03 -.145E+00   0.509E-02 -.397E-03 0.149E+00   0.110E-02 -.174E-02 -.110E-01   0.470E-05 -.101E-04 -.586E-05
   -.164E-02 0.144E-02 -.145E+00   0.521E-02 -.545E-02 0.150E+00   0.104E-02 -.753E-03 -.109E-01   -.628E-05 -.425E-04 -.162E-04
   0.101E+00 -.342E-01 -.748E-01   -.120E+00 0.447E-01 0.805E-01   -.380E-02 0.158E-02 0.119E-01   -.535E-05 -.194E-04 -.114E-04
   -.122E+00 -.962E-01 -.226E+00   0.139E+00 0.111E+00 0.240E+00   0.458E-02 0.582E-02 0.142E-01   -.312E-05 -.357E-04 -.236E-04
   0.432E-01 0.128E+00 -.150E+00   -.476E-01 -.147E+00 0.160E+00   -.329E-02 -.358E-02 0.130E-01   0.123E-05 0.219E-04 -.145E-04
   -.279E-01 -.688E-03 -.345E-01   0.251E-01 0.280E-02 0.471E-01   -.421E-02 0.129E-02 -.134E-01   0.839E-05 0.231E-04 -.892E-05
   -.121E+00 0.930E-01 -.224E+00   0.137E+00 -.103E+00 0.238E+00   0.457E-02 -.325E-02 0.146E-01   -.572E-05 -.262E-04 -.121E-04
   0.101E+00 0.329E-01 -.767E-01   -.119E+00 -.389E-01 0.823E-01   -.387E-02 0.933E-03 0.120E-01   -.755E-06 -.342E-04 -.419E-05
   0.421E-01 -.128E+00 -.151E+00   -.466E-01 0.151E+00 0.160E+00   -.327E-02 0.613E-02 0.133E-01   -.669E-05 0.205E-04 -.127E-04
   -.273E-01 -.669E-03 -.353E-01   0.246E-01 0.278E-02 0.479E-01   -.419E-02 0.129E-02 -.135E-01   0.145E-04 0.239E-04 -.196E-05
   -.112E-02 -.865E-04 -.552E-01   0.364E-14 -.133E-13 0.411E-13   0.108E-02 0.838E-04 0.552E-01   0.875E-05 -.157E-05 0.997E-05

 POSITION                                       TOTAL-FORCE (eV/Angst)
      2.47237     -0.00011      1.01739        -0.292569      0.005334     -0.083851
      4.93431     -0.00022      1.00886         0.029841      0.003200     -0.004003
      1.23348      2.13645      1.00886        -0.015080     -0.022694     -0.003970
      3.70064      2.13634      1.00886        -0.015426      0.029396     -0.004041
      2.46715     -0.00011      5.04431        -0.004595      0.003290      0.003739
      4.93431     -0.00022      5.04431        -0.005329      0.003402      0.008711
      1.23348      2.13645      5.04431        -0.003587      0.004296      0.008782
      3.70064      2.13634      5.04431        -0.003400      0.002179      0.008626
     -1.23367      2.13656      3.02658         0.010958     -0.008826      0.000471
      1.23348      2.13645      3.02658        -0.002662     -0.005576     -0.007937
     -2.46735      4.27313      3.02658         0.001327      0.004528     -0.003771
     -0.00019      4.27302      3.02658        -0.001030     -0.003319     -0.019397
     -1.23367      2.13656      7.06203        -0.002646     -0.000950     -0.007888
      1.23348      2.13645      7.06203         0.011166      0.002390      0.000446
     -2.46735      4.27313      7.06203         0.001363     -0.011310     -0.003690
     -0.00019      4.27302      7.06203        -0.001089     -0.003316     -0.017602
     -0.00019      1.42441      1.00886         0.006884     -0.003409      0.008442
      2.46696      1.42430      1.00886         0.057969     -0.003593     -0.000229
     -1.23387      3.56098      1.00886         0.118791      0.031522      0.000327
      1.23329      3.56086      1.00886         0.121513     -0.040283     -0.000870
     -0.00019      1.42441      5.04431         0.007900     -0.003383      0.001074
      2.46696      1.42430      5.04431         0.002185     -0.003539     -0.006634
     -1.23387      3.56098      5.04431         0.004840     -0.001861     -0.006648
      1.23329      3.56086      5.04431         0.004618     -0.004794     -0.006616
      1.23367      0.71204      3.02658        -0.022716      0.012096      0.017637
      3.70083      0.71193      3.02658         0.021508      0.020278      0.028551
     -0.00000      2.84860      3.02658        -0.007694     -0.022144      0.023073
      2.46715      2.84849      3.02658        -0.006953      0.003432     -0.000800
      1.23367      0.71204      7.06203         0.021161     -0.013272      0.028243
      3.70083      0.71193      7.06203        -0.022561     -0.005119      0.017666
     -0.00000      2.84860      7.06203        -0.007763      0.028614      0.022961
      2.46715      2.84849      7.06203        -0.006925      0.003430     -0.000803
    total drift:                               -0.000028     -0.000004     -0.000035

  FREE ENERGIE OF THE ION-ELECTRON SYSTEM (eV)
  free  energy   TOTEN  =      -261.88577956 eV

  energy  without entropy=     -261.85524292  energy(sigma->0) =     -261.87051124