 vasp.5.3.5 31Mar14 (build Nov 02 2014 15:17:37) complex

 executed on        ion-Intel-MKL date 2016.10.09  14:41:37

 INCAR:
 POTCAR:   PAW_PBE C 08Apr2002
 POTCAR:   PAW_PBE C 08Apr2002
   VRHFIN =C: s2p2

   TITEL  = PAW_PBE C 08Apr2002
   POMASS =   12.011; ZVAL   =    4.000    mass and valenz
   ENMAX  =  400.000; ENMIN  =  300.000 eV
   QCUT   =   -5.516; QGAM   =   11.032    optimization parameters

   Description
     l     E      TYP  RCUT    TYP  RCUT
     0   .000     23  1.200
     0   .000     23  1.200
     1   .000     23  1.500
     1  2.500     23  1.500
     2   .000      7  1.500

 PAW_PBE C 08Apr2002                    :

 POSCAR: C
  positions in direct lattice
 exchange correlation table for  LEXCH =        8
   RHO(1)=    0.500       N(1)  =     2000
   RHO(2)=  100.500       N(2)  =     4000

 ion  position               nearest neighbor table
   1  0.500  0.000  0.125-  18 1.42  19 1.42  20 1.42
   2  1.000  0.000  0.125-  20 1.42  17 1.42  19 1.42
   3  0.500  0.500  0.125-  17 1.42  20 1.42  18 1.42
   4  1.000  0.500  0.125-  19 1.42  18 1.42  17 1.43
   5  0.500  0.000  0.625-  22 1.42  23 1.42  24 1.42
   6  1.000  0.000  0.625-  21 1.42  24 1.42  23 1.42
   7  0.500  0.500  0.625-  24 1.42  21 1.42  22 1.42
   8  1.000  0.500  0.625-  23 1.42  22 1.42  21 1.42
   9  0.000  0.500  0.375-  27 1.42  26 1.42  28 1.42
  10  0.500  0.500  0.375-  28 1.42  25 1.42  27 1.42
  11  0.000  1.000  0.375-  25 1.42  28 1.42  26 1.42
  12  0.500  1.000  0.375-  26 1.42  27 1.42  25 1.42
  13  0.000  0.500  0.875-  31 1.42  30 1.42  32 1.42
  14  0.500  0.500  0.875-  32 1.42  29 1.42  31 1.42
  15  0.000  1.000  0.875-  29 1.42  32 1.42  30 1.42
  16  0.500  1.000  0.875-  30 1.42  31 1.42  29 1.42
  17  0.167  0.334  0.126-   3 1.42   2 1.42   4 1.43
  18  0.666  0.334  0.125-   1 1.42   4 1.42   3 1.42
  19  0.166  0.834  0.125-   4 1.42   1 1.42   2 1.42
  20  0.666  0.834  0.125-   3 1.42   2 1.42   1 1.42
  21  0.166  0.334  0.625-   6 1.42   7 1.42   8 1.42
  22  0.666  0.334  0.625-   5 1.42   8 1.42   7 1.42
  23  0.166  0.834  0.625-   8 1.42   5 1.42   6 1.42
  24  0.666  0.834  0.625-   7 1.42   6 1.42   5 1.42
  25  0.334  0.166  0.375-  11 1.42  10 1.42  12 1.42
  26  0.834  0.166  0.375-  12 1.42   9 1.42  11 1.42
  27  0.334  0.666  0.375-   9 1.42  12 1.42  10 1.42
  28  0.834  0.666  0.375-  10 1.42  11 1.42   9 1.42
  29  0.334  0.166  0.875-  15 1.42  14 1.42  16 1.42
  30  0.834  0.166  0.875-  16 1.42  13 1.42  15 1.42
  31  0.334  0.666  0.875-  13 1.42  16 1.42  14 1.42
  32  0.834  0.666  0.875-  14 1.42  15 1.42  13 1.42

  LATTYP: Found a base centered orthorhombic cell.
 ALAT       =     4.9295501972
 B/A-ratio  =     1.7336081796
 C/A-ratio  =     2.7713292194

  Lattice vectors:

 A1 = (   4.9328744980,  -0.0019192860,   0.0000000000)
 A2 = (  -2.4680993993,   4.2710349859,   0.0000000000)
 A3 = (   0.0000000000,   0.0000000000,  13.6614065000)

Analysis of symmetry for initial positions (statically):
 Subroutine PRICEL returns:
 Original cell was already a primitive cell.

 Routine SETGRP: Setting up the symmetry group for a
 base centered orthorhombic supercell.

 Subroutine GETGRP returns: Found  1 space group operations
 (whereof  1 operations were pure point group operations)
 out of a pool of  8 trial point group operations.

The static configuration has the point symmetry C_1 .

Analysis of symmetry for dynamics (positions and initial velocities):
 Subroutine PRICEL returns:
 Original cell was already a primitive cell.

 Routine SETGRP: Setting up the symmetry group for a
 base centered orthorhombic supercell.

 Subroutine GETGRP returns: Found  1 space group operations
 (whereof  1 operations were pure point group operations)
 out of a pool of  8 trial point group operations.

The dynamic configuration has the point symmetry C_1 .

 KPOINTS: B4C B11C-CBC

Automatic generation of k-mesh.
Space group operators:
 irot       det(A)        alpha          n_x          n_y          n_z        tau_x        tau_y        tau_z
    1     1.000000     0.000001     1.000000     0.000000     0.000000     0.000000     0.000000     0.000000

 Subroutine IBZKPT returns following result:

 Found    163 irreducible k-points:

 Following reciprocal coordinates:
            Coordinates               Weight
  0.000000  0.000000  0.000000      1.000000
  0.111111  0.000000  0.000000      2.000000
  0.222222  0.000000  0.000000      2.000000
  0.333333  0.000000  0.000000      2.000000
  0.444444  0.000000  0.000000      2.000000
  0.000000  0.111111  0.000000      2.000000
  0.111111  0.111111  0.000000      2.000000
  0.222222  0.111111  0.000000      2.000000
  0.333333  0.111111  0.000000      2.000000
  0.444444  0.111111  0.000000      2.000000
 -0.444444  0.111111  0.000000      2.000000
 -0.333333  0.111111  0.000000      2.000000
 -0.222222  0.111111  0.000000      2.000000
 -0.111111  0.111111  0.000000      2.000000
  0.000000  0.222222  0.000000      2.000000
  0.111111  0.222222  0.000000      2.000000
  0.222222  0.222222  0.000000      2.000000
  0.333333  0.222222  0.000000      2.000000
  0.444444  0.222222  0.000000      2.000000
 -0.444444  0.222222  0.000000      2.000000
 -0.333333  0.222222  0.000000      2.000000
 -0.222222  0.222222  0.000000      2.000000
 -0.111111  0.222222  0.000000      2.000000
  0.000000  0.333333  0.000000      2.000000
  0.111111  0.333333  0.000000      2.000000
  0.222222  0.333333  0.000000      2.000000
  0.333333  0.333333  0.000000      2.000000
  0.444444  0.333333  0.000000      2.000000
 -0.444444  0.333333  0.000000      2.000000
 -0.333333  0.333333  0.000000      2.000000
 -0.222222  0.333333  0.000000      2.000000
 -0.111111  0.333333  0.000000      2.000000
  0.000000  0.444444  0.000000      2.000000
  0.111111  0.444444  0.000000      2.000000
  0.222222  0.444444  0.000000      2.000000
  0.333333  0.444444  0.000000      2.000000
  0.444444  0.444444  0.000000      2.000000
 -0.444444  0.444444  0.000000      2.000000
 -0.333333  0.444444  0.000000      2.000000
 -0.222222  0.444444  0.000000      2.000000
 -0.111111  0.444444  0.000000      2.000000
  0.000000  0.000000  0.250000      2.000000
  0.111111  0.000000  0.250000      2.000000
  0.222222  0.000000  0.250000      2.000000
  0.333333  0.000000  0.250000      2.000000
  0.444444  0.000000  0.250000      2.000000
 -0.444444  0.000000  0.250000      2.000000
 -0.333333  0.000000  0.250000      2.000000
 -0.222222  0.000000  0.250000      2.000000
 -0.111111  0.000000  0.250000      2.000000
  0.000000  0.111111  0.250000      2.000000
  0.111111  0.111111  0.250000      2.000000
  0.222222  0.111111  0.250000      2.000000
  0.333333  0.111111  0.250000      2.000000
  0.444444  0.111111  0.250000      2.000000
 -0.444444  0.111111  0.250000      2.000000
 -0.333333  0.111111  0.250000      2.000000
 -0.222222  0.111111  0.250000      2.000000
 -0.111111  0.111111  0.250000      2.000000
  0.000000  0.222222  0.250000      2.000000
[...]
  0.333333  0.333333  0.500000      2.000000
  0.444444  0.333333  0.500000      2.000000
 -0.444444  0.333333  0.500000      2.000000
 -0.333333  0.333333  0.500000      2.000000
 -0.222222  0.333333  0.500000      2.000000
 -0.111111  0.333333  0.500000      2.000000
  0.000000  0.444444  0.500000      2.000000
  0.111111  0.444444  0.500000      2.000000
  0.222222  0.444444  0.500000      2.000000
  0.333333  0.444444  0.500000      2.000000
  0.444444  0.444444  0.500000      2.000000
 -0.444444  0.444444  0.500000      2.000000
 -0.333333  0.444444  0.500000      2.000000
 -0.222222  0.444444  0.500000      2.000000
 -0.111111  0.444444  0.500000      2.000000

 Following cartesian coordinates:
            Coordinates               Weight
  0.000000  0.000000  0.000000      1.000000
  0.022530  0.013019  0.000000      2.000000
  0.045059  0.026038  0.000000      2.000000
  0.067589  0.039058  0.000000      2.000000
  0.090119  0.052077  0.000000      2.000000
  0.000010  0.026021  0.000000      2.000000
  0.022540  0.039040  0.000000      2.000000
  0.045069  0.052059  0.000000      2.000000
  0.067599  0.065079  0.000000      2.000000
  0.090129  0.078098  0.000000      2.000000
 -0.090109 -0.026056  0.000000      2.000000
 -0.067579 -0.013037  0.000000      2.000000
 -0.045049 -0.000018  0.000000      2.000000
 -0.022520  0.013002  0.000000      2.000000
  0.000020  0.052042  0.000000      2.000000
  0.022550  0.065061  0.000000      2.000000
  0.045080  0.078080  0.000000      2.000000
  0.067609  0.091099  0.000000      2.000000
  0.090139  0.104119  0.000000      2.000000
 -0.090098 -0.000035  0.000000      2.000000
 -0.067569  0.012984  0.000000      2.000000
 -0.045039  0.026003  0.000000      2.000000
 -0.022509  0.039023  0.000000      2.000000
  0.000030  0.078063  0.000000      2.000000
  0.022560  0.091082  0.000000      2.000000
  0.045090  0.104101  0.000000      2.000000
  0.067619  0.117120  0.000000      2.000000
  0.090149  0.130139  0.000000      2.000000
 -0.090088  0.025986  0.000000      2.000000
 -0.067559  0.039005  0.000000      2.000000
 -0.045029  0.052024  0.000000      2.000000
 -0.022499  0.065043  0.000000      2.000000
  0.000040  0.104084  0.000000      2.000000
  0.022570  0.117103  0.000000      2.000000
  0.045100  0.130122  0.000000      2.000000
  0.067630  0.143141  0.000000      2.000000
  0.090159  0.156160  0.000000      2.000000
 -0.090078  0.052007  0.000000      2.000000
 -0.067549  0.065026  0.000000      2.000000
 -0.045019  0.078045  0.000000      2.000000
 -0.022489  0.091064  0.000000      2.000000
  0.000000  0.000000  0.018300      2.000000
  0.022530  0.013019  0.018300      2.000000
  0.045059  0.026038  0.018300      2.000000
  0.067589  0.039058  0.018300      2.000000
  0.090119  0.052077  0.018300      2.000000
 -0.090119 -0.052077  0.018300      2.000000
 -0.067589 -0.039058  0.018300      2.000000
 -0.045059 -0.026038  0.018300      2.000000
 -0.022530 -0.013019  0.018300      2.000000
  0.000010  0.026021  0.018300      2.000000
  0.022540  0.039040  0.018300      2.000000
  0.045069  0.052059  0.018300      2.000000
  0.067599  0.065079  0.018300      2.000000
  0.090129  0.078098  0.018300      2.000000
 -0.090109 -0.026056  0.018300      2.000000
 -0.067579 -0.013037  0.018300      2.000000
 -0.045049 -0.000018  0.018300      2.000000
 -0.022520  0.013002  0.018300      2.000000
  0.000020  0.052042  0.018300      2.000000
[...]
  0.067619  0.117120  0.036599      2.000000
  0.090149  0.130139  0.036599      2.000000
 -0.090088  0.025986  0.036599      2.000000
 -0.067559  0.039005  0.036599      2.000000
 -0.045029  0.052024  0.036599      2.000000
 -0.022499  0.065043  0.036599      2.000000
  0.000040  0.104084  0.036599      2.000000
  0.022570  0.117103  0.036599      2.000000
  0.045100  0.130122  0.036599      2.000000
  0.067630  0.143141  0.036599      2.000000
  0.090159  0.156160  0.036599      2.000000
 -0.090078  0.052007  0.036599      2.000000
 -0.067549  0.065026  0.036599      2.000000
 -0.045019  0.078045  0.036599      2.000000
 -0.022489  0.091064  0.036599      2.000000

[...]

[...]

 eigenvalue-minimisations  : 17574
 total energy-change (2. order) : 0.3114292E-07  (-0.3533819E-07)
 number of electron     128.0000006 magnetization
 augmentation part        3.0675029 magnetization

 Free energy of the ion-electron system (eV)
  alpha Z        PSCENC =       289.94852147
  Ewald energy   TEWEN  =     -3597.11167782
  -Hartree energ DENC   =     -1529.26756355
  -exchange      EXHF   =         0.00000000
  -V(xc)+E(xc)   XCENC  =       461.00865779
  PAW double counting   =      2222.30011056    -2263.62394526
  entropy T*S    EENTRO =         0.00000000
  eigenvalues    EBANDS =      -586.83293160
  atomic energy  EATOM  =      4708.80920826
  free energy    TOTEN  =      -294.76962014 eV

  energy without entropy =     -294.76962014  energy(sigma->0) =     -294.76962014

 average (electrostatic) potential at core
  the test charge radii are     0.6991
  (the norm of the test charge is              1.0000)
       1 -50.8824       2 -50.8824       3 -50.8826       4 -50.8822       5 -50.8825
       6 -50.8825       7 -50.8825       8 -50.8825       9 -50.8824      10 -50.8824
      11 -50.8824      12 -50.8825      13 -50.8827      14 -50.8827      15 -50.8827
      16 -50.8826      17 -50.8561      18 -50.8561      19 -50.8545      20 -50.8576
      21 -50.8563      22 -50.8563      23 -50.8563      24 -50.8563      25 -50.8564
      26 -50.8563      27 -50.8564      28 -50.8563      29 -50.8566      30 -50.8565
      31 -50.8565      32 -50.8566

 E-fermi :   4.5200     XC(G=0): -10.1802     alpha+bet :-11.1637

 k-point     1 :       0.0000    0.0000    0.0000
  band No.  band energies     occupation
      1     -15.0923      2.00000
      2     -14.9659      2.00000
      3     -14.9655      2.00000
      4     -14.8313      2.00000
      5      -9.7802      2.00000
      6      -9.7696      2.00000
      7      -9.7668      2.00000
      8      -9.7295      2.00000
      9      -9.7277      2.00000
     10      -9.7176      2.00000
     11      -9.7160      2.00000
     12      -9.7160      2.00000
     13      -9.7122      2.00000
     14      -9.6845      2.00000
     15      -9.6718      2.00000
     16      -9.6692      2.00000
     17      -8.7068      2.00000
     18      -8.7055      2.00000
     19      -8.7044      2.00000
     20      -8.6789      2.00000
     21      -8.6780      2.00000
     22      -8.6760      2.00000
     23      -8.6754      2.00000
     24      -8.6754      2.00000
     25      -8.6730      2.00000
     26      -8.6335      2.00000
     27      -8.6327      2.00000
     28      -8.6303      2.00000
     29      -3.9049      2.00000
     30      -3.0932      2.00000
     31      -3.0916      2.00000
     32      -2.1115      2.00000
     33      -1.8796      2.00000
     34      -1.8773      2.00000
     35      -1.8619      2.00000
     36      -1.8564      2.00000
     37      -1.8556      2.00000
     38      -1.8556      2.00000
     39      -1.8518      2.00000
     40      -1.8391      2.00000
     41      -1.8369      2.00000
     42      -1.8325      2.00000
     43      -1.8297      2.00000
     44      -1.8146      2.00000
     45       1.5146      2.00000
     46       1.5210      2.00000
     47       1.5212      2.00000
     48       1.5261      2.00000
     49       1.5327      2.00000
     50       1.5373      2.00000
     51       1.5376      2.00000
     52       1.5439      2.00000
     53       1.8041      2.00000
     54       1.8074      2.00000
     55       1.8094      2.00000
     56       2.1619      2.00000
     57       2.1646      2.00000
     58       2.1717      2.00000
     59       2.1722      2.00000
     60       2.1722      2.00000
[...]
     68       6.1775      0.00000
     69       6.1802      0.00000
     70       6.1823      0.00000
     71       6.1847      0.00000
     72       6.1849      0.00000
     73       6.1882      0.00000
     74       6.6570      0.00000
     75       6.6633      0.00000
     76       6.6665      0.00000
     77       8.6833      0.00000
     78      11.1812      0.00000
     79      11.1845      0.00000
     80      11.7445      0.00000
     81      11.8820      0.00000
     82      11.9172      0.00000

[...]

 k-point   163 :      -0.1111    0.4444    0.5000
  band No.  band energies     occupation
      1     -14.1062      2.00000
      2     -14.1060      2.00000
      3     -13.9325      2.00000
      4     -13.9322      2.00000
      5     -12.8086      2.00000
      6     -12.8085      2.00000
      7     -12.6495      2.00000
      8     -12.6492      2.00000
      9     -11.5491      2.00000
     10     -11.5489      2.00000
     11     -11.4044      2.00000
     12     -11.4040      2.00000
     13      -9.7555      2.00000
     14      -9.7552      2.00000
     15      -9.6362      2.00000
     16      -9.6357      2.00000
     17      -7.2644      2.00000
     18      -7.2628      2.00000
     19      -7.1815      2.00000
     20      -7.1800      2.00000
     21      -5.6101      2.00000
     22      -5.6085      2.00000
     23      -5.5365      2.00000
     24      -5.5348      2.00000
     25      -4.6150      2.00000
     26      -4.6133      2.00000
     27      -4.5550      2.00000
     28      -4.5532      2.00000
     29      -4.3544      2.00000
     30      -4.3542      2.00000
     31      -4.2820      2.00000
     32      -4.2817      2.00000
     33      -3.1636      2.00000
     34      -3.1619      2.00000
     35      -3.1147      2.00000
     36      -3.1131      2.00000
     37      -2.5387      2.00000
     38      -2.5378      2.00000
     39      -1.4955      2.00000
     40      -1.4942      2.00000
     41      -1.4531      2.00000
     42      -1.4516      2.00000
     43      -1.3341      2.00000
     44      -1.3331      2.00000
     45      -1.2484      2.00000
     46      -1.2477      2.00000
     47      -1.2150      2.00000
     48      -1.2143      2.00000
     49      -1.0126      2.00000
     50      -1.0117      2.00000
     51      -0.1210      2.00000
     52      -0.1194      2.00000
     53      -0.0950      2.00000
     54      -0.0937      2.00000
     55       0.1003      2.00000
     56       0.1014      2.00000
     57       0.4362      2.00000
     58       0.4369      2.00000
     59       1.4369      2.00000
     60       1.4379      2.00000
[...]
     68       6.4449      0.00000
     69       8.0744      0.00000
     70       8.0760      0.00000
     71       8.5179      0.00000
     72       8.5191      0.00000
     73       9.9096      0.00000
     74       9.9122      0.00000
     75      10.4137      0.00000
     76      10.4162      0.00000
     77      10.5146      0.00000
     78      10.5171      0.00000
     79      12.0452      0.00000
     80      12.0482      0.00000
     81      12.5876      0.00000
     82      12.5881      0.00000

 soft charge-density along one line, spin component           1
         0         1         2         3         4         5         6         7         8         9
 total charge-density along one line

------------------------ aborting loop because EDIFF is reached ----------------------------------------

         DFTD3 V3.0 Rev 1
 IVDW         = 12
 DF pbe
 parameters
 VDW_S6       =    1.0000
 VDW_S8       =    0.7875
 VDW_A1       =    0.4289
 VDW_A2       =    4.4407
 k1-k3        =   16.0000    1.3333   -4.0000
 VDW_RADIUS   =   50.2022 A
 VDW_CNRADIUS =   21.1671 A
 Edisp (eV)   -4.89664

 E6    (eV) :    -3.5124
 E8    (eV) :    -1.3842
 % E8        : 28.27

  FORCE on cell =-STRESS in cart. coord.  units (eV):
  Direction    XX          YY          ZZ          XY          YZ          ZX
  Alpha Z   289.94852   289.94852   289.94852
  Ewald     706.34250   705.86792 -5009.34001     0.33280     0.00062    -0.00910
  Hartree  1348.80441  1348.81177 -1168.34748     0.10976     0.00020    -0.00204
  E(xc)    -467.51732  -467.52413  -484.84657    -0.00305     0.00001    -0.00004
  Local   -3673.92796 -3673.55899  4288.89584    -0.38676    -0.00040     0.00847
  n-local  -112.45531  -112.56601  -102.65600    -0.09052     0.00033    -0.00064
  augment   -12.37464   -12.37373   -11.33845    -0.00038    -0.00000     0.00003
  Kinetic  1921.51034  1922.32212  2202.22332     0.58095    -0.00473     0.01058
  Fock        0.00000     0.00000     0.00000     0.00000     0.00000     0.00000
  vdW        -0.77900    -0.76937    -5.88418     0.00800    -0.00000    -0.00001
  Total      -0.44845     0.15809    -1.34500     0.55079    -0.00399     0.00726
  in kB      -2.49688     0.88023    -7.48863     3.06664    -0.02220     0.04042

 VOLUME and BASIS-vectors are now :
  energy-cutoff  :      600.00
  volume of cell :      287.76
      direct lattice vectors                 reciprocal lattice vectors
     4.932874498 -0.001919286  0.000000000     0.202767147  0.117172881  0.000000000
    -2.468099399  4.271034986  0.000000000     0.000091118  0.234187941  0.000000000
     0.000000000  0.000000000 13.661406500     0.000000000  0.000000000  0.073198905

  length of vectors
     4.932874871  4.932874871 13.661406500     0.234187958  0.234187958  0.073198905

 FORCES acting on ions
    electron-ion (+dipol)            ewald-force                    non-local-force                 convergence-correction
   -.191E+00 0.663E-01 0.323E+00   0.183E+00 -.622E-01 -.324E+00   -.421E-02 0.268E-02 0.887E-02   -.972E-04 -.607E-04 0.227E-02
   0.115E+00 0.594E-01 0.848E+00   -.122E+00 -.545E-01 -.881E+00   0.206E-01 0.236E-02 0.776E-01   -.611E-04 -.532E-04 0.228E-02
   -.434E+00 -.252E+00 0.851E+00   0.481E+00 0.287E+00 -.886E+00   0.129E-01 -.177E-02 0.778E-01   -.824E-04 -.806E-04 0.228E-02
   -.445E+00 0.388E+00 0.843E+00   0.492E+00 -.415E+00 -.876E+00   0.118E-01 0.764E-02 0.773E-01   -.701E-04 -.605E-04 0.228E-02
   -.115E+00 0.663E-01 -.957E-01   0.108E+00 -.621E-01 0.944E-01   -.468E-02 0.272E-02 -.147E-02   0.519E-03 -.594E-04 0.119E-02
   -.115E+00 0.663E-01 -.961E-01   0.107E+00 -.621E-01 0.947E-01   -.467E-02 0.272E-02 -.142E-02   0.489E-03 -.693E-04 0.119E-02
   -.115E+00 0.662E-01 -.961E-01   0.107E+00 -.620E-01 0.947E-01   -.468E-02 0.272E-02 -.143E-02   0.510E-03 -.556E-04 0.119E-02
   -.115E+00 0.663E-01 -.961E-01   0.107E+00 -.621E-01 0.947E-01   -.467E-02 0.272E-02 -.142E-02   0.498E-03 -.732E-04 0.119E-02
   0.133E+00 -.756E-01 -.913E-01   -.126E+00 0.708E-01 0.934E-01   0.460E-02 -.286E-02 0.203E-02   0.672E-04 0.114E-03 -.218E-02
   0.951E-01 -.797E-01 -.104E+00   -.883E-01 0.750E-01 0.107E+00   0.461E-02 -.289E-02 0.177E-02   0.742E-04 0.119E-03 -.218E-02
   0.118E+00 -.451E-01 -.978E-01   -.111E+00 0.403E-01 0.100E+00   0.463E-02 -.289E-02 0.190E-02   0.678E-04 0.116E-03 -.218E-02
   0.111E+00 -.669E-01 -.746E-01   -.104E+00 0.621E-01 0.771E-01   0.456E-02 -.288E-02 0.115E-02   0.741E-04 0.119E-03 -.218E-02
   0.947E-01 -.519E-01 -.105E+00   -.886E-01 0.492E-01 0.107E+00   0.442E-02 -.232E-02 0.170E-02   0.219E-03 -.279E-03 -.115E-02
   0.132E+00 -.561E-01 -.922E-01   -.126E+00 0.535E-01 0.933E-01   0.441E-02 -.234E-02 0.195E-02   0.208E-03 -.280E-03 -.115E-02
   0.117E+00 -.861E-01 -.986E-01   -.111E+00 0.835E-01 0.100E+00   0.444E-02 -.232E-02 0.182E-02   0.217E-03 -.282E-03 -.115E-02
   0.110E+00 -.647E-01 -.759E-01   -.104E+00 0.620E-01 0.774E-01   0.435E-02 -.232E-02 0.108E-02   0.210E-03 -.288E-03 -.116E-02
   0.855E+00 -.634E-01 -.177E+01   -.964E+00 0.589E-01 0.181E+01   -.885E-01 -.273E-02 -.182E+00   0.115E-03 0.562E-04 0.236E-02
   -.823E-01 -.654E-01 0.385E+00   0.108E+00 0.617E-01 -.370E+00   0.227E-01 -.263E-02 -.240E-01   0.355E-04 0.496E-04 0.224E-02
   0.895E-01 0.338E-01 0.385E+00   -.884E-01 -.515E-01 -.370E+00   0.121E-01 -.868E-02 -.240E-01   0.870E-04 0.890E-04 0.224E-02
   0.900E-01 -.165E+00 0.386E+00   -.887E-01 0.175E+00 -.371E+00   0.120E-01 0.363E-02 -.241E-01   0.751E-04 0.386E-04 0.224E-02
   0.114E+00 -.657E-01 -.964E-01   -.107E+00 0.618E-01 0.951E-01   0.445E-02 -.259E-02 0.376E-03   -.528E-03 0.620E-04 0.117E-02
   0.114E+00 -.657E-01 -.957E-01   -.107E+00 0.618E-01 0.945E-01   0.444E-02 -.259E-02 0.250E-03   -.481E-03 0.638E-04 0.117E-02
   0.114E+00 -.657E-01 -.957E-01   -.107E+00 0.618E-01 0.945E-01   0.445E-02 -.259E-02 0.250E-03   -.508E-03 0.542E-04 0.117E-02
   0.114E+00 -.658E-01 -.957E-01   -.107E+00 0.619E-01 0.945E-01   0.444E-02 -.259E-02 0.249E-03   -.500E-03 0.809E-04 0.117E-02
   -.133E+00 0.795E-01 -.104E+00   0.126E+00 -.749E-01 0.107E+00   -.429E-02 0.271E-02 -.279E-03   -.308E-04 -.117E-03 -.216E-02
   -.946E-01 0.753E-01 -.912E-01   0.885E-01 -.706E-01 0.934E-01   -.459E-02 0.264E-02 0.814E-04   -.425E-04 -.120E-03 -.216E-02
   -.110E+00 0.441E-01 -.980E-01   0.104E+00 -.400E-01 0.100E+00   -.438E-02 0.294E-02 -.115E-03   -.332E-04 -.119E-03 -.216E-02
   -.117E+00 0.663E-01 -.750E-01   0.110E+00 -.618E-01 0.771E-01   -.454E-02 0.276E-02 -.155E-03   -.396E-04 -.127E-03 -.215E-02
   -.938E-01 0.553E-01 -.920E-01   0.888E-01 -.532E-01 0.932E-01   -.426E-02 0.231E-02 0.458E-04   -.256E-03 0.283E-03 -.113E-02
   -.132E+00 0.511E-01 -.105E+00   0.126E+00 -.489E-01 0.107E+00   -.396E-02 0.224E-02 -.368E-03   -.246E-03 0.290E-03 -.113E-02
   -.109E+00 0.860E-01 -.988E-01   0.104E+00 -.833E-01 0.100E+00   -.404E-02 0.202E-02 -.177E-03   -.255E-03 0.285E-03 -.113E-02
   -.115E+00 0.642E-01 -.762E-01   0.110E+00 -.619E-01 0.774E-01   -.421E-02 0.219E-02 -.225E-03   -.248E-03 0.292E-03 -.113E-02
   0.104E-04 -.105E-04 0.326E-02   0.666E-14 0.225E-13 0.145E-13   0.287E-04 0.152E-04 -.455E-02   -.109E-04 -.113E-04 0.115E-02

 POSITION                                       TOTAL-FORCE (eV/Angst)
      2.46402      0.00044      1.70768        -0.012786      0.006736      0.010811
      4.93046     -0.00052      1.70768         0.014041      0.007269      0.046010
      1.22997      2.13595      1.70768         0.059293      0.032836      0.045584
      3.69641      2.13499      1.70768         0.058821     -0.019068      0.046380
      2.46402      0.00044      8.53838        -0.011711      0.006900     -0.001623
      4.93046     -0.00052      8.53838        -0.011708      0.006900     -0.001610
      1.22997      2.13595      8.53838        -0.011710      0.006898     -0.001611
      3.69641      2.13499      8.53838        -0.011709      0.006900     -0.001606
     -1.23163      2.13412      5.12303         0.011435     -0.007587      0.001945
      1.23481      2.13316      5.12303         0.011529     -0.007511      0.002062
     -2.46568      4.26964      5.12303         0.011419     -0.007603      0.002000
      0.00076      4.26868      5.12303         0.011545     -0.007565      0.001388
     -1.23163      2.13412     11.95373         0.010725     -0.005366      0.002076
      1.23481      2.13316     11.95373         0.010643     -0.005247      0.001933
     -2.46568      4.26964     11.95373         0.010584     -0.005261      0.001996
      0.00076      4.26868     11.95373         0.010748     -0.005295      0.001397
      0.00007      1.42496      1.71708        -0.198286     -0.007243     -0.135382
      2.46311      1.42400      1.70768         0.049240     -0.006291     -0.007327
     -1.23737      3.56047      1.70768         0.013613     -0.026882     -0.007387
      1.22906      3.55952      1.70768         0.013711      0.014296     -0.007371
     -0.00332      1.42496      8.53838         0.010932     -0.006451      0.000274
      2.46311      1.42400      8.53838         0.010926     -0.006451      0.000170
     -1.23737      3.56047      8.53838         0.010928     -0.006450      0.000170
      1.22906      3.55952      8.53838         0.010928     -0.006453      0.000170
      1.23571      0.70960      5.12303        -0.011205      0.007253     -0.000041
      3.70215      0.70864      5.12303        -0.010883      0.007259      0.000050
      0.00166      2.84512      5.12303        -0.011047      0.006983     -0.000009
      2.46810      2.84416      5.12303        -0.011041      0.007158     -0.000243
      1.23571      0.70960     11.95373        -0.009576      0.004737      0.000086
      3.70215      0.70864     11.95373        -0.009899      0.004740     -0.000055
      0.00166      2.84512     11.95373        -0.009738      0.005017     -0.000000
      2.46810      2.84416     11.95373        -0.009760      0.004841     -0.000236
    total drift:                                0.000028     -0.000007     -0.000144

  FREE ENERGIE OF THE ION-ELECTRON SYSTEM (eV)
  free  energy   TOTEN  =      -299.66625567 eV

  energy  without entropy=     -299.66625567  energy(sigma->0) =     -299.66625567

 BZINTS: Fermi energy:  4.520033;128.000000 electrons
         Band energy:-586.832932;  BLOECHL correction: -0.000001