 vasp.5.3.5 31Mar14 (build Nov 02 2014 15:17:37) complex

 executed on        ion-Intel-MKL date 2016.08.27  00:13:13

 INCAR:
 POTCAR:   PAW_PBE C 08Apr2002
 POTCAR:   PAW_PBE C 08Apr2002
   VRHFIN =C: s2p2

   TITEL  = PAW_PBE C 08Apr2002
   POMASS =   12.011; ZVAL   =    4.000    mass and valenz
   ENMAX  =  400.000; ENMIN  =  300.000 eV
   QCUT   =   -5.516; QGAM   =   11.032    optimization parameters

   Description
     l     E      TYP  RCUT    TYP  RCUT
     0   .000     23  1.200
     0   .000     23  1.200
     1   .000     23  1.500
     1  2.500     23  1.500
     2   .000      7  1.500

 PAW_PBE C 08Apr2002                    :

 POSCAR: CIF file
  positions in direct lattice
  velocities in cartesian coordinates
 exchange correlation table for  LEXCH =        8
   RHO(1)=    0.500       N(1)  =     2000
   RHO(2)=  100.500       N(2)  =     4000

 ion  position               nearest neighbor table
   1  0.999  0.001  0.250-   3 1.42   3 1.42   3 1.42   2 1.49   2 1.49   4 2.06   4 2.06   4 2.06
                             4 2.06   4 2.06   4 2.06
   2  0.001  0.999  0.750-   4 1.42   4 1.42   4 1.42   1 1.49   1 1.49   3 2.06   3 2.06   3 2.06
                             3 2.06   3 2.06   3 2.06
   3  0.333  0.667  0.250-   1 1.42   1 1.42   1 1.42   2 2.06   2 2.06   4 2.06   4 2.06   4 2.06
                             4 2.06   2 2.06   2 2.06   2 2.06   2 2.06   4 2.07   4 2.07
   4  0.667  0.333  0.750-   2 1.42   2 1.42   2 1.42   1 2.06   1 2.06   3 2.06   3 2.06   3 2.06
                             3 2.06   1 2.06   1 2.06   1 2.06   1 2.06   3 2.07   3 2.07

  LATTYP: Found a base centered orthorhombic cell.
 ALAT       =     2.4647750986
 B/A-ratio  =     1.7336081796
 C/A-ratio  =     1.2107749017

  Lattice vectors:

 A1 = (   2.4664372490,  -0.0009596430,   0.0000000000)
 A2 = (  -1.2340496996,   2.1355174929,   0.0000000000)
 A3 = (   0.0000000000,   0.0000000000,   2.9842878277)

Analysis of symmetry for initial positions (statically):
 Subroutine PRICEL returns:
 Original cell was already a primitive cell.

 Routine SETGRP: Setting up the symmetry group for a
 base centered orthorhombic supercell.

 Subroutine GETGRP returns: Found  8 space group operations
 (whereof  4 operations were pure point group operations)
 out of a pool of  8 trial point group operations.

The static configuration has the point symmetry C_2h.
 The point group associated with its full space group is D_2h.

Analysis of symmetry for dynamics (positions and initial velocities):
 Subroutine PRICEL returns:
 Original cell was already a primitive cell.

 Routine SETGRP: Setting up the symmetry group for a
 base centered orthorhombic supercell.

 Subroutine GETGRP returns: Found  8 space group operations
 (whereof  4 operations were pure point group operations)
 out of a pool of  8 trial point group operations.

The dynamic configuration has the point symmetry C_2h.
 The point group associated with its full space group is D_2h.

 KPOINTS: B4C B11C-CBC

Automatic generation of k-mesh.
Space group operators:
 irot       det(A)        alpha          n_x          n_y          n_z        tau_x        tau_y        tau_z
    1     1.000000     0.000000     1.000000     0.000000     0.000000     0.000000     0.000000     0.000000
    2    -1.000000     0.000000     1.000000     0.000000     0.000000     0.000000     0.000000     0.000000
    3     1.000000   180.000000    -0.500000    -0.866025     0.000000     0.000000     0.000000     0.000000
    4    -1.000000   180.000000    -0.500000    -0.866025     0.000000     0.000000     0.000000     0.000000
    5     1.000000   179.999999     0.000000     0.000000     1.000000     0.000000     0.000000     0.500000
    6    -1.000000   179.999999     0.000000     0.000000     1.000000     0.000000     0.000000     0.500000
    7     1.000000   180.000000     0.866025    -0.500000     0.000000     0.000000     0.000000     0.500000
    8    -1.000000   180.000000     0.866025    -0.500000     0.000000     0.000000     0.000000     0.500000

 Subroutine IBZKPT returns following result:

 Found    455 irreducible k-points:

 Following reciprocal coordinates:
            Coordinates               Weight
  0.000000  0.000000  0.000000      1.000000
  0.055556 -0.000000  0.000000      4.000000
  0.111111 -0.000000  0.000000      4.000000
  0.166667 -0.000000  0.000000      4.000000
  0.222222  0.000000  0.000000      4.000000
  0.277778  0.000000  0.000000      4.000000
  0.333333 -0.000000  0.000000      4.000000
  0.388889  0.000000  0.000000      4.000000
  0.444444  0.000000  0.000000      4.000000
  0.500000  0.000000  0.000000      2.000000
  0.055556  0.055556  0.000000      2.000000
  0.111111  0.055556  0.000000      4.000000
  0.166667  0.055556  0.000000      4.000000
  0.222222  0.055556  0.000000      4.000000
  0.277778  0.055556  0.000000      4.000000
  0.333333  0.055556  0.000000      4.000000
  0.388889  0.055556  0.000000      4.000000
  0.444444  0.055556  0.000000      4.000000
  0.500000  0.055556  0.000000      4.000000
 -0.444444  0.055556  0.000000      4.000000
 -0.388889  0.055556  0.000000      4.000000
 -0.333333  0.055556  0.000000      4.000000
 -0.277778  0.055556  0.000000      4.000000
 -0.222222  0.055556  0.000000      4.000000
 -0.166667  0.055556  0.000000      4.000000
 -0.111111  0.055556  0.000000      4.000000
 -0.055556  0.055556  0.000000      2.000000
  0.111111  0.111111  0.000000      2.000000
  0.166667  0.111111  0.000000      4.000000
  0.222222  0.111111  0.000000      4.000000
  0.277778  0.111111  0.000000      4.000000
  0.333333  0.111111  0.000000      4.000000
  0.388889  0.111111  0.000000      4.000000
  0.444444  0.111111  0.000000      4.000000
  0.500000  0.111111  0.000000      4.000000
 -0.444444  0.111111  0.000000      4.000000
 -0.388889  0.111111  0.000000      4.000000
 -0.333333  0.111111  0.000000      4.000000
 -0.277778  0.111111  0.000000      4.000000
 -0.222222  0.111111  0.000000      4.000000
 -0.166667  0.111111  0.000000      4.000000
 -0.111111  0.111111  0.000000      2.000000
  0.166667  0.166667  0.000000      2.000000
  0.222222  0.166667  0.000000      4.000000
  0.277778  0.166667  0.000000      4.000000
  0.333333  0.166667  0.000000      4.000000
  0.388889  0.166667  0.000000      4.000000
  0.444444  0.166667  0.000000      4.000000
  0.500000  0.166667  0.000000      4.000000
 -0.444444  0.166667  0.000000      4.000000
 -0.388889  0.166667  0.000000      4.000000
 -0.333333  0.166667  0.000000      4.000000
 -0.277778  0.166667  0.000000      4.000000
 -0.222222  0.166667  0.000000      4.000000
 -0.166667  0.166667  0.000000      2.000000
  0.222222  0.222222  0.000000      2.000000
  0.277778  0.222222  0.000000      4.000000
  0.333333  0.222222  0.000000      4.000000
  0.388889  0.222222  0.000000      4.000000
  0.444444  0.222222  0.000000      4.000000
[...]
  0.388889  0.333333  0.500000      4.000000
  0.444444  0.333333  0.500000      4.000000
  0.500000  0.333333  0.500000      4.000000
 -0.444444  0.333333  0.500000      4.000000
 -0.388889  0.333333  0.500000      4.000000
 -0.333333  0.333333  0.500000      2.000000
  0.388889  0.388889  0.500000      2.000000
  0.444444  0.388889  0.500000      4.000000
  0.500000  0.388889  0.500000      4.000000
 -0.444444  0.388889  0.500000      4.000000
 -0.388889  0.388889  0.500000      2.000000
  0.444444  0.444444  0.500000      2.000000
  0.500000  0.444444  0.500000      4.000000
 -0.444444  0.444444  0.500000      2.000000
  0.500000  0.500000  0.500000      1.000000

 Following cartesian coordinates:
            Coordinates               Weight
  0.000000  0.000000  0.000000      1.000000
  0.022530  0.013019  0.000000      4.000000
  0.045059  0.026038  0.000000      4.000000
  0.067589  0.039058  0.000000      4.000000
  0.090119  0.052077  0.000000      4.000000
  0.112648  0.065096  0.000000      4.000000
  0.135178  0.078115  0.000000      4.000000
  0.157708  0.091134  0.000000      4.000000
  0.180237  0.104154  0.000000      4.000000
  0.202767  0.117173  0.000000      2.000000
  0.022540  0.039040  0.000000      2.000000
  0.045069  0.052059  0.000000      4.000000
  0.067599  0.065079  0.000000      4.000000
  0.090129  0.078098  0.000000      4.000000
  0.112659  0.091117  0.000000      4.000000
  0.135188  0.104136  0.000000      4.000000
  0.157718  0.117155  0.000000      4.000000
  0.180248  0.130175  0.000000      4.000000
  0.202777  0.143194  0.000000      4.000000
 -0.180227 -0.078133  0.000000      4.000000
 -0.157698 -0.065114  0.000000      4.000000
 -0.135168 -0.052094  0.000000      4.000000
 -0.112638 -0.039075  0.000000      4.000000
 -0.090109 -0.026056  0.000000      4.000000
 -0.067579 -0.013037  0.000000      4.000000
 -0.045049 -0.000018  0.000000      4.000000
 -0.022520  0.013002  0.000000      2.000000
  0.045080  0.078080  0.000000      2.000000
  0.067609  0.091099  0.000000      4.000000
  0.090139  0.104119  0.000000      4.000000
  0.112669  0.117138  0.000000      4.000000
  0.135198  0.130157  0.000000      4.000000
  0.157728  0.143176  0.000000      4.000000
  0.180258  0.156195  0.000000      4.000000
  0.202787  0.169215  0.000000      4.000000
 -0.180217 -0.052112  0.000000      4.000000
 -0.157688 -0.039093  0.000000      4.000000
 -0.135158 -0.026073  0.000000      4.000000
 -0.112628 -0.013054  0.000000      4.000000
 -0.090098 -0.000035  0.000000      4.000000
 -0.067569  0.012984  0.000000      4.000000
 -0.045039  0.026003  0.000000      2.000000
  0.067619  0.117120  0.000000      2.000000
  0.090149  0.130139  0.000000      4.000000
  0.112679  0.143159  0.000000      4.000000
  0.135208  0.156178  0.000000      4.000000
  0.157738  0.169197  0.000000      4.000000
  0.180268  0.182216  0.000000      4.000000
  0.202798  0.195236  0.000000      4.000000
 -0.180207 -0.026091  0.000000      4.000000
 -0.157677 -0.013072  0.000000      4.000000
 -0.135148 -0.000053  0.000000      4.000000
 -0.112618  0.012967  0.000000      4.000000
 -0.090088  0.025986  0.000000      4.000000
 -0.067559  0.039005  0.000000      2.000000
  0.090159  0.156160  0.000000      2.000000
  0.112689  0.169180  0.000000      4.000000
  0.135219  0.182199  0.000000      4.000000
  0.157748  0.195218  0.000000      4.000000
  0.180278  0.208237  0.000000      4.000000
[...]
  0.157769  0.247260  0.167544      4.000000
  0.180298  0.260279  0.167544      4.000000
  0.202828  0.273298  0.167544      4.000000
 -0.180177  0.051972  0.167544      4.000000
 -0.157647  0.064991  0.167544      4.000000
 -0.135117  0.078010  0.167544      2.000000
  0.157779  0.273281  0.167544      2.000000
  0.180308  0.286300  0.167544      4.000000
  0.202838  0.299319  0.167544      4.000000
 -0.180167  0.077993  0.167544      4.000000
 -0.157637  0.091012  0.167544      2.000000
  0.180318  0.312321  0.167544      2.000000
  0.202848  0.325340  0.167544      4.000000
 -0.180156  0.104013  0.167544      2.000000
  0.202858  0.351361  0.167544      1.000000

 TETIRR: Found   3888 inequivalent tetrahedra from    15552

 I would recommend the setting:
[...]
 k-point ** :  -0.3333 0.1111 0.1250  plane waves:     515
 k-point ** :  -0.2778 0.1111 0.1250  plane waves:     518
 k-point ** :  -0.2222 0.1111 0.1250  plane waves:     517
 k-point ** :  -0.1667 0.1111 0.1250  plane waves:     519
 k-point ** :  -0.1111 0.1111 0.1250  plane waves:     517
 k-point ** :   0.1667 0.1667 0.1250  plane waves:     515
 k-point ** :   0.2222 0.1667 0.1250  plane waves:     522
 k-point ** :   0.2778 0.1667 0.1250  plane waves:     526
 k-point ** :   0.3333 0.1667 0.1250  plane waves:     529
 k-point ** :   0.3889 0.1667 0.1250  plane waves:     530
 k-point ** :   0.4444 0.1667 0.1250  plane waves:     529
 k-point ** :   0.5000 0.1667 0.1250  plane waves:     530
 k-point ** :  -0.4444 0.1667 0.1250  plane waves:     526
 k-point ** :  -0.3889 0.1667 0.1250  plane waves:     521
 k-point ** :  -0.3333 0.1667 0.1250  plane waves:     515
 k-point ** :  -0.2778 0.1667 0.1250  plane waves:     518
 k-point ** :  -0.2222 0.1667 0.1250  plane waves:     519
 k-point ** :  -0.1667 0.1667 0.1250  plane waves:     517
 k-point ** :   0.2222 0.2222 0.1250  plane waves:     527
 k-point ** :   0.2778 0.2222 0.1250  plane waves:     532
 k-point ** :   0.3333 0.2222 0.1250  plane waves:     531
 k-point ** :   0.3889 0.2222 0.1250  plane waves:     533
 k-point ** :   0.4444 0.2222 0.1250  plane waves:     531
 k-point ** :   0.5000 0.2222 0.1250  plane waves:     532
 k-point ** :  -0.4444 0.2222 0.1250  plane waves:     528
 k-point ** :  -0.3889 0.2222 0.1250  plane waves:     520
 k-point ** :  -0.3333 0.2222 0.1250  plane waves:     515
 k-point ** :  -0.2778 0.2222 0.1250  plane waves:     518
 k-point ** :  -0.2222 0.2222 0.1250  plane waves:     518
 k-point ** :   0.2778 0.2778 0.1250  plane waves:     531
 k-point ** :   0.3333 0.2778 0.1250  plane waves:     531
[...]
 k-point ** :   0.3889 0.3333 0.5000  plane waves:     538
 k-point ** :   0.4444 0.3333 0.5000  plane waves:     534
 k-point ** :   0.5000 0.3333 0.5000  plane waves:     532
 k-point ** :  -0.4444 0.3333 0.5000  plane waves:     530
 k-point ** :  -0.3889 0.3333 0.5000  plane waves:     530
 k-point ** :  -0.3333 0.3333 0.5000  plane waves:     524
 k-point ** :   0.3889 0.3889 0.5000  plane waves:     538
 k-point ** :   0.4444 0.3889 0.5000  plane waves:     530
 k-point ** :   0.5000 0.3889 0.5000  plane waves:     532
 k-point ** :  -0.4444 0.3889 0.5000  plane waves:     526
 k-point ** :  -0.3889 0.3889 0.5000  plane waves:     526
 k-point ** :   0.4444 0.4444 0.5000  plane waves:     534
 k-point ** :   0.5000 0.4444 0.5000  plane waves:     526
 k-point ** :  -0.4444 0.4444 0.5000  plane waves:     526
 k-point ** :   0.5000 0.5000 0.5000  plane waves:     524

 maximum and minimum number of plane-waves per node :       187      154

 maximum number of plane-waves:       540
 maximum index in each direction:
   IXMAX=    5   IYMAX=    4   IZMAX=    5
   IXMIN=   -5   IYMIN=   -5   IZMIN=   -6

 WARNING: aliasing errors must be expected set NGX to  22 to avoid them
 NGY is ok and might be reduce to  20
 NGZ is ok and might be reduce to  24
 aliasing errors are usually negligible using standard VASP settings
 and one can safely disregard these warnings

 parallel 3D FFT for wavefunctions:
    minimum data exchange during FFTs selected (reduces bandwidth)
 parallel 3D FFT for charge:
    minimum data exchange during FFTs selected (reduces bandwidth)

 Broyden mixing: mesh for mixing (old mesh)
   NGX =  9   NGY =  9   NGZ = 11
  (NGX  = 40   NGY  = 40   NGZ  = 48)
  gives a total of    891 points

 initial charge density was supplied:
 charge density of overlapping atoms calculated
 number of electron      16.0000000 magnetization
 keeping initial charge density in first step

 Maximum index for augmentation-charges         1323 (set IRDMAX)

 First call to EWALD:  gamma=   0.708
 Maximum number of real-space cells 3x 3x 2
 Maximum number of reciprocal cells 3x 3x 3

 FEWALD executed in parallel

----------------------------------------- Iteration    1(   1)  ---------------------------------------

 BZINTS: Fermi energy: 25.097028; 16.000000 electrons
         Band energy: 138.670130;  BLOECHL correction: -0.508495

 eigenvalue-minimisations  : 10940
 total energy-change (2. order) : 0.4373059E+02  (-0.9850303E+03)
 number of electron      16.0000000 magnetization
 augmentation part       16.0000000 magnetization

 Free energy of the ion-electron system (eV)
  alpha Z        PSCENC =        82.95749364
  Ewald energy   TEWEN  =      -807.60969465
  -Hartree energ DENC   =       -16.31923750
  -exchange      EXHF   =         0.00000000
  -V(xc)+E(xc)   XCENC  =        62.03267071
  PAW double counting   =       151.32577238     -155.92769107
  entropy T*S    EENTRO =         0.00000000
  eigenvalues    EBANDS =       138.67012976
  atomic energy  EATOM  =       588.60115103
  free energy    TOTEN  =        43.73059432 eV

  energy without entropy =       43.73059432  energy(sigma->0) =       43.73059432

[...]

 eigenvalue-minimisations  : 14124
 total energy-change (2. order) :-0.6336105E+02  (-0.5647943E+02)
 number of electron      16.0000000 magnetization
 augmentation part       16.0000000 magnetization

[...]

 Broyden mixing:
  rms(total) = 0.76277E+00    rms(broyden)= 0.76267E+00
  rms(prec ) = 0.19579E+01
  weight for this iteration     100.00

[...]

 eigenvalues of (default mixing * dielectric matrix)
  average eigenvalue GAMMA=   1.9780
  1.9780

[...]

 average (electrostatic) potential at core
  the test charge radii are     0.6991
  (the norm of the test charge is              1.0000)
       1 -40.4351       2 -40.4351       3 -39.7067       4 -39.7067

 E-fermi :  17.7359     XC(G=0): -15.4534     alpha+bet :-25.5525

 k-point     1 :       0.0000    0.0000    0.0000
  band No.  band energies     occupation
      1     -11.2121      2.00000
      2       0.1930      2.00000
      3       3.9256      2.00000
      4       8.7886      2.00000
      5       8.8475      2.00000
      6      12.4592      2.00000
      7      12.5154      2.00000
      8      20.2811      0.00000
      9      20.8137      0.00000
     10      22.4115      0.00000
     11      22.4905      0.00000
     12      23.6393      0.00000

[...]

 soft charge-density along one line, spin component           1
         0         1         2         3         4         5         6         7         8         9
 total charge-density along one line

------------------------ aborting loop because EDIFF is reached ----------------------------------------

         DFTD3 V3.0 Rev 1
 IVDW         = 12
 DF pbe
 parameters
 VDW_S6       =    1.0000
 VDW_S8       =    0.7875
 VDW_A1       =    0.4289
 VDW_A2       =    4.4407
 k1-k3        =   16.0000    1.3333   -4.0000
 VDW_RADIUS   =   50.2022 A
 VDW_CNRADIUS =   21.1671 A
 Edisp (eV)   -1.10912

 E6    (eV) :    -0.7897
 E8    (eV) :    -0.3194
 % E8        : 28.80

  FORCE on cell =-STRESS in cart. coord.  units (eV):
  Direction    XX          YY          ZZ          XY          YZ          ZX
  Alpha Z    82.95749    82.95749    82.95749
  Ewald    -257.12674  -257.44868  -293.03510    -0.27881     0.00000    -0.00000
  Hartree     9.10045     9.00429    10.83918    -0.08328    -0.00000    -0.00000
  E(xc)     -63.77344   -63.77406   -63.90659    -0.00053     0.00000     0.00000
  Local     -13.29717   -12.91473    21.27762     0.33120    -0.00000    -0.00000
  n-local   -10.16812   -11.83073   -15.33022     0.48491    -0.57447     0.89497
  augment    -1.63947    -1.63930    -1.62512     0.00015    -0.00000     0.00000
  Kinetic   263.88345   288.21697   312.32560    -7.05535     5.36953    -7.22169
  Fock        0.00000     0.00000     0.00000     0.00000     0.00000     0.00000
  vdW        -1.12139    -1.12133    -1.13021     0.00005     0.00000    -0.00000
  Total      20.16174    20.10325    52.37266    -0.05065     0.00000     0.00000
  in kB    2055.52280  2049.55983  5339.48017    -5.16408     0.00000     0.00000

 VOLUME and BASIS-vectors are now :
  energy-cutoff  :      600.00
  volume of cell :       15.72
      direct lattice vectors                 reciprocal lattice vectors
     2.466437249 -0.000959643  0.000000000     0.405534294  0.234345762  0.000000000
    -1.234049700  2.135517493  0.000000000     0.000182236  0.468375882  0.000000000
     0.000000000  0.000000000  2.984287828     0.000000000  0.000000000  0.335088322

[...]

 FORCES acting on ions
    electron-ion (+dipol)            ewald-force                    non-local-force                 convergence-correction
   0.119E+00 -.687E-01 0.603E-13   -.108E+00 0.621E-01 -.222E-14   0.769E-02 -.444E-02 0.000E+00   0.157E-04 -.908E-05 -.169E-14
   -.119E+00 0.687E-01 -.642E-13   0.108E+00 -.621E-01 0.315E-14   -.769E-02 0.444E-02 0.000E+00   -.157E-04 0.908E-05 0.174E-14
   -.155E+00 0.898E-01 0.274E-12   0.178E+00 -.103E+00 -.463E-14   0.818E-02 -.472E-02 -.347E-17   -.672E-04 0.388E-04 -.349E-14
   0.155E+00 -.898E-01 -.747E-12   -.178E+00 0.103E+00 0.370E-14   -.818E-02 0.472E-02 0.104E-16   0.672E-04 -.388E-04 0.168E-16
   -.102E-04 -.176E-04 -.478E-12   0.278E-15 -.164E-14 0.000E+00   0.139E-16 0.000E+00 0.694E-17   0.543E-09 0.941E-09 -.343E-14

 POSITION                                       TOTAL-FORCE (eV/Angst)
      2.46402      0.00044      0.74607         0.019244     -0.011110     -0.000000
     -1.23163      2.13412      2.23822        -0.019244      0.011110      0.000000
     -0.00332      1.42496      0.74607         0.030276     -0.017480     -0.000000
      1.23571      0.70960      2.23822        -0.030276      0.017480     -0.000000
    total drift:                               -0.000010     -0.000018     -0.000000

  FREE ENERGIE OF THE ION-ELECTRON SYSTEM (eV)
  free  energy   TOTEN  =       -21.23197096 eV

  energy  without entropy=      -21.23197096  energy(sigma->0) =      -21.23197096

[...]

 eigenvalues of (default mixing * dielectric matrix)
  average eigenvalue GAMMA=   1.6705
  1.2278  2.1132

[...]

         DFTD3 V3.0 Rev 1
 Edisp (eV)   -1.10912

[...]

 d Force = 0.9993621E-04[ 0.343E-04, 0.166E-03]  d Energy = 0.1386698E-03-0.387E-04
 d Force = 0.1544535E-03[-0.117E-03, 0.426E-03]  d Ewald  = 0.1544104E-03 0.431E-07

 Steepest descent step on ions:
 trial-energy change:   -0.000139  1 .order   -0.000100   -0.000166   -0.000034
  (g-gl).g = 0.166E-03      g.g   = 0.166E-03  gl.gl    = 0.000E+00
 g(Force)  = 0.166E-03   g(Stress)= 0.000E+00 ortho     = 0.000E+00
 gamma     =   0.00000
 trial     =   1.00000
 opt step  =   1.08924  (harmonic =   1.26135) maximal distance =0.00159097
 next E    =   -21.232111   (d E  =  -0.00014)

 FEWALD executed in parallel

[...]

 eigenvalue-minimisations  : 11056
 total energy-change (2. order) :-0.4862503E-05  (-0.1237721E-04)
 number of electron      16.0000002 magnetization
 augmentation part        0.3887010 magnetization

 Broyden mixing:
  rms(total) = 0.21488E-03    rms(broyden)= 0.21456E-03
  rms(prec ) = 0.53696E-03
  weight for this iteration     100.00

[...]

----------------------------------------- Iteration    3(   2)  ---------------------------------------

 BZINTS: Fermi energy: 17.735754; 16.000000 electrons
         Band energy:  86.963290;  BLOECHL correction: -0.100306

 eigenvalue-minimisations  : 10136
 total energy-change (2. order) : 0.3843900E-07  (-0.1082537E-06)
 number of electron      16.0000002 magnetization
 augmentation part        0.3887010 magnetization

 Free energy of the ion-electron system (eV)
  alpha Z        PSCENC =        82.95749364
  Ewald energy   TEWEN  =      -807.60983646
  -Hartree energ DENC   =       -28.94396954
  -exchange      EXHF   =         0.00000000
  -V(xc)+E(xc)   XCENC  =        63.31902220
  PAW double counting   =       323.19110659     -328.60125285
  entropy T*S    EENTRO =         0.00000000
  eigenvalues    EBANDS =        86.96328953
  atomic energy  EATOM  =       588.60115103
  free energy    TOTEN  =       -20.12299586 eV

  energy without entropy =      -20.12299586  energy(sigma->0) =      -20.12299586

 average (electrostatic) potential at core
  the test charge radii are     0.6991
  (the norm of the test charge is              1.0000)
       1 -40.4353       2 -40.4353       3 -39.7065       4 -39.7065

 E-fermi :  17.7358     XC(G=0): -15.4534     alpha+bet :-25.5525

[...]

 k-point   455 :       0.5000    0.5000    0.5000
  band No.  band energies     occupation
      1      -2.5428      2.00000
      2      -2.5428      2.00000
      3      -0.5805      2.00000
      4      -0.5805      2.00000
      5       7.4429      2.00000
      6       7.4429      2.00000
      7      15.5016      2.00000
      8      15.5016      2.00000
      9      19.7705      0.00000
     10      19.7705      0.00000
     11      27.9543      0.00000
     12      27.9543      0.00000

 soft charge-density along one line, spin component           1
         0         1         2         3         4         5         6         7         8         9
 total charge-density along one line

------------------------ aborting loop because EDIFF is reached ----------------------------------------

         DFTD3 V3.0 Rev 1
 Edisp (eV)   -1.10912

 E6    (eV) :    -0.7897
 E8    (eV) :    -0.3194
 % E8        : 28.80

  FORCE on cell =-STRESS in cart. coord.  units (eV):
  Direction    XX          YY          ZZ          XY          YZ          ZX
  Alpha Z    82.95749    82.95749    82.95749
  Ewald    -257.32826  -257.24615  -293.03624     0.07111     0.00000    -0.00000
  Hartree     9.06068     9.04417    10.83907    -0.01429    -0.00000    -0.00000
  E(xc)     -63.77381   -63.77371   -63.90662     0.00009    -0.00000    -0.00000
  Local     -13.08942   -13.12351    21.27854    -0.02952    -0.00000    -0.00000
  n-local   -10.16854   -11.82988   -15.32957     0.48253    -0.57050     0.89657
  augment    -1.63919    -1.63953    -1.62512    -0.00029     0.00000    -0.00000
  Kinetic   263.89334   288.20792   312.32382    -7.05521     5.35911    -7.24000
  Fock        0.00000     0.00000     0.00000     0.00000     0.00000     0.00000
  vdW        -1.12137    -1.12135    -1.13021     0.00002    -0.00000    -0.00000
  Total      20.13195    20.13445    52.37116     0.00216     0.00000     0.00000
  in kB    2052.48550  2052.74032  5339.32711     0.22068     0.00000     0.00000

 VOLUME and BASIS-vectors are now :
  energy-cutoff  :      600.00
  volume of cell :       15.72
      direct lattice vectors                 reciprocal lattice vectors
     2.466437249 -0.000959643  0.000000000     0.405534294  0.234345762  0.000000000
    -1.234049700  2.135517493  0.000000000     0.000182236  0.468375882  0.000000000
     0.000000000  0.000000000  2.984287828     0.000000000  0.000000000  0.335088322

  length of vectors
     2.466437436  2.466437436  2.984287828     0.468375917  0.468375917  0.335088322

 FORCES acting on ions
    electron-ion (+dipol)            ewald-force                    non-local-force                 convergence-correction
   -.342E-01 0.197E-01 -.700E-12   0.591E-01 -.341E-01 -.302E-14   0.995E-02 -.575E-02 -.278E-16   0.119E-03 -.690E-04 0.114E-11
   0.342E-01 -.198E-01 -.145E-12   -.591E-01 0.341E-01 0.322E-14   -.995E-02 0.575E-02 -.278E-16   -.119E-03 0.690E-04 -.113E-11
   0.592E-01 -.342E-01 -.637E-12   -.800E-01 0.462E-01 -.461E-14   0.574E-02 -.331E-02 0.000E+00   -.126E-02 0.728E-03 0.976E-12
   -.592E-01 0.342E-01 -.107E-11   0.800E-01 -.462E-01 0.441E-14   -.574E-02 0.331E-02 0.000E+00   0.126E-02 -.728E-03 -.101E-11
   -.101E-04 -.176E-04 -.255E-11   0.305E-15 -.162E-14 0.000E+00   -.833E-16 -.139E-16 -.555E-16   0.908E-10 0.157E-09 -.244E-13

 POSITION                                       TOTAL-FORCE (eV/Angst)
      2.46503     -0.00015      0.74607         0.034978     -0.020195     -0.000000
     -1.23264      2.13471      2.23822        -0.034978      0.020195      0.000000
     -0.00173      1.42404      0.74607        -0.016330      0.009428     -0.000000
      1.23412      0.71052      2.23822         0.016330     -0.009428      0.000000
    total drift:                               -0.000010     -0.000018     -0.000000

  FREE ENERGIE OF THE ION-ELECTRON SYSTEM (eV)
  free  energy   TOTEN  =       -21.23211442 eV

  energy  without entropy=      -21.23211442  energy(sigma->0) =      -21.23211442

 d Force = 0.2556694E-05[ 0.205E-05, 0.306E-05]  d Energy = 0.4782876E-05-0.223E-05
 d Force =-0.1260032E-04[-0.148E-04,-0.104E-04]  d Ewald  =-0.1260035E-04 0.313E-10

 reached required accuracy - stopping structural energy minimisation
 BZINTS: Fermi energy: 17.735754; 16.000000 electrons
         Band energy:  86.963290;  BLOECHL correction: -0.100306