 vasp.5.3.5 31Mar14 (build Nov 02 2014 15:17:37) complex

 executed on        ion-Intel-MKL date 2016.08.14  02:26:12

 INCAR:
 POTCAR:   PAW_PBE C 08Apr2002

 POTCAR:   PAW_PBE C 08Apr2002
   VRHFIN =C: s2p2

   TITEL  = PAW_PBE C 08Apr2002
   POMASS =   12.011; ZVAL   =    4.000    mass and valenz
   ENMAX  =  400.000; ENMIN  =  300.000 eV
   QCUT   =   -5.516; QGAM   =   11.032    optimization parameters

   Description
     l     E      TYP  RCUT    TYP  RCUT
     0   .000     23  1.200
     0   .000     23  1.200
     1   .000     23  1.500
     1  2.500     23  1.500
     2   .000      7  1.500

 PAW_PBE C 08Apr2002                    :

 POSCAR: C
  positions in direct lattice
 exchange correlation table for  LEXCH =        8
   RHO(1)=    0.500       N(1)  =     2000
   RHO(2)=  100.500       N(2)  =     4000

 ion  position               nearest neighbor table
   1  0.500  0.000  0.125-  20 1.42  18 1.42  19 1.42  16 2.02  12 2.02
   2  1.000  0.000  0.125-  19 1.42  20 1.42  17 1.42  15 2.02  11 2.02
   3  0.500  0.500  0.125-  17 1.42  18 1.42  20 1.42  14 2.02  10 2.02
   4  1.000  0.500  0.125-  19 1.42  18 1.42  17 1.43  13 2.02   9 2.02
   5  0.500  0.000  0.625-  24 1.42  22 1.42  23 1.42  16 2.02  12 2.02
   6  1.000  0.000  0.625-  23 1.42  21 1.42  24 1.42  15 2.02  11 2.02
   7  0.500  0.500  0.625-  22 1.42  24 1.42  21 1.42  14 2.02  10 2.02
   8  1.000  0.500  0.625-  21 1.42  23 1.42  22 1.42  13 2.02   9 2.02
   9  0.000  0.500  0.375-  28 1.42  27 1.42  26 1.42   8 2.02   4 2.02
  10  0.500  0.500  0.375-  27 1.42  28 1.42  25 1.42   7 2.02   3 2.02
  11  0.000  1.000  0.375-  26 1.42  25 1.42  28 1.42   6 2.02   2 2.02
  12  0.500  1.000  0.375-  25 1.42  26 1.42  27 1.42   5 2.02   1 2.02
  13  0.000  0.500  0.875-  32 1.42  31 1.42  30 1.42   8 2.02   4 2.02
  14  0.500  0.500  0.875-  31 1.42  32 1.42  29 1.42   7 2.02   3 2.02
  15  0.000  1.000  0.875-  30 1.42  29 1.42  32 1.42   6 2.02   2 2.02
  16  0.500  1.000  0.875-  29 1.42  30 1.42  31 1.42   5 2.02   1 2.02
  17  0.168  0.333  0.126-   3 1.42   2 1.42   4 1.43
  18  0.667  0.333  0.125-   3 1.42   1 1.42   4 1.42
  19  0.167  0.833  0.125-   2 1.42   4 1.42   1 1.42
  20  0.667  0.833  0.125-   1 1.42   3 1.42   2 1.42
  21  0.167  0.333  0.625-   8 1.42   6 1.42   7 1.42
  22  0.667  0.333  0.625-   7 1.42   5 1.42   8 1.42
  23  0.167  0.833  0.625-   6 1.42   8 1.42   5 1.42
  24  0.667  0.833  0.625-   5 1.42   7 1.42   6 1.42
  25  0.333  0.167  0.375-  12 1.42  11 1.42  10 1.42
  26  0.833  0.167  0.375-  11 1.42  12 1.42   9 1.42
  27  0.333  0.667  0.375-  10 1.42   9 1.42  12 1.42
  28  0.833  0.667  0.375-   9 1.42  10 1.42  11 1.42
  29  0.333  0.167  0.875-  16 1.42  15 1.42  14 1.42
  30  0.833  0.167  0.875-  15 1.42  16 1.42  13 1.42
  31  0.333  0.667  0.875-  14 1.42  13 1.42  16 1.42
  32  0.833  0.667  0.875-  13 1.42  14 1.42  15 1.42

  LATTYP: Found a base centered orthorhombic cell.
 ALAT       =     4.9339256766
 B/A-ratio  =     1.7322311103
 C/A-ratio  =     1.6357949639

  Lattice vectors:

 A1 = (   4.9343108848,  -0.0002224000,   0.0000000000)
 A2 = (  -2.4673480464,   4.2731273763,   0.0000000000)
 A3 = (   0.0000000000,   0.0000000000,   8.0708907740)

Analysis of symmetry for initial positions (statically):
 Subroutine PRICEL returns:
 Original cell was already a primitive cell.

 Routine SETGRP: Setting up the symmetry group for a
 base centered orthorhombic supercell.

 Subroutine GETGRP returns: Found  1 space group operations
 (whereof  1 operations were pure point group operations)
 out of a pool of  8 trial point group operations.

The static configuration has the point symmetry C_1 .

Analysis of symmetry for dynamics (positions and initial velocities):
 Subroutine PRICEL returns:
 Original cell was already a primitive cell.

 Routine SETGRP: Setting up the symmetry group for a
 base centered orthorhombic supercell.

 Subroutine GETGRP returns: Found  1 space group operations
 (whereof  1 operations were pure point group operations)
 out of a pool of  8 trial point group operations.

The dynamic configuration has the point symmetry C_1 .

 KPOINTS: B4C B11C-CBC

Automatic generation of k-mesh.
Space group operators:
 irot       det(A)        alpha          n_x          n_y          n_z        tau_x        tau_y        tau_z
    1     1.000000     0.000000     1.000000     0.000000     0.000000     0.000000     0.000000     0.000000

 Subroutine IBZKPT returns following result:

 Found    163 irreducible k-points:

 Following reciprocal coordinates:
            Coordinates               Weight
  0.000000  0.000000  0.000000      1.000000
  0.111111 -0.000000  0.000000      2.000000
  0.222222 -0.000000  0.000000      2.000000
  0.333333  0.000000  0.000000      2.000000
  0.444444 -0.000000  0.000000      2.000000
  0.000000  0.111111  0.000000      2.000000
  0.111111  0.111111  0.000000      2.000000
  0.222222  0.111111  0.000000      2.000000
  0.333333  0.111111  0.000000      2.000000
  0.444444  0.111111  0.000000      2.000000
 -0.444444  0.111111  0.000000      2.000000
 -0.333333  0.111111  0.000000      2.000000
 -0.222222  0.111111  0.000000      2.000000
 -0.111111  0.111111  0.000000      2.000000
 -0.000000  0.222222  0.000000      2.000000
  0.111111  0.222222  0.000000      2.000000
  0.222222  0.222222  0.000000      2.000000
  0.333333  0.222222  0.000000      2.000000
  0.444444  0.222222  0.000000      2.000000
 -0.444444  0.222222  0.000000      2.000000
 -0.333333  0.222222  0.000000      2.000000
 -0.222222  0.222222  0.000000      2.000000
 -0.111111  0.222222  0.000000      2.000000
  0.000000  0.333333  0.000000      2.000000
  0.111111  0.333333  0.000000      2.000000
  0.222222  0.333333  0.000000      2.000000
  0.333333  0.333333  0.000000      2.000000
  0.444444  0.333333  0.000000      2.000000
 -0.444444  0.333333  0.000000      2.000000
 -0.333333  0.333333  0.000000      2.000000
 -0.222222  0.333333  0.000000      2.000000
 -0.111111  0.333333  0.000000      2.000000
 -0.000000  0.444444  0.000000      2.000000
  0.111111  0.444444  0.000000      2.000000
  0.222222  0.444444  0.000000      2.000000
  0.333333  0.444444  0.000000      2.000000
  0.444444  0.444444  0.000000      2.000000
 -0.444444  0.444444  0.000000      2.000000
 -0.333333  0.444444  0.000000      2.000000
 -0.222222  0.444444  0.000000      2.000000
 -0.111111  0.444444  0.000000      2.000000
  0.000000  0.000000  0.250000      2.000000
  0.111111 -0.000000  0.250000      2.000000
  0.222222 -0.000000  0.250000      2.000000
  0.333333  0.000000  0.250000      2.000000
  0.444444 -0.000000  0.250000      2.000000
 -0.444444  0.000000  0.250000      2.000000
 -0.333333 -0.000000  0.250000      2.000000
 -0.222222  0.000000  0.250000      2.000000
 -0.111111  0.000000  0.250000      2.000000
  0.000000  0.111111  0.250000      2.000000
  0.111111  0.111111  0.250000      2.000000
  0.222222  0.111111  0.250000      2.000000
  0.333333  0.111111  0.250000      2.000000
  0.444444  0.111111  0.250000      2.000000
 -0.444444  0.111111  0.250000      2.000000
 -0.333333  0.111111  0.250000      2.000000
 -0.222222  0.111111  0.250000      2.000000
 -0.111111  0.111111  0.250000      2.000000
 -0.000000  0.222222  0.250000      2.000000
[...]
  0.333333  0.333333  0.500000      2.000000
  0.444444  0.333333  0.500000      2.000000
 -0.444444  0.333333  0.500000      2.000000
 -0.333333  0.333333  0.500000      2.000000
 -0.222222  0.333333  0.500000      2.000000
 -0.111111  0.333333  0.500000      2.000000
 -0.000000  0.444444  0.500000      2.000000
  0.111111  0.444444  0.500000      2.000000
  0.222222  0.444444  0.500000      2.000000
  0.333333  0.444444  0.500000      2.000000
  0.444444  0.444444  0.500000      2.000000
 -0.444444  0.444444  0.500000      2.000000
 -0.333333  0.444444  0.500000      2.000000
 -0.222222  0.444444  0.500000      2.000000
 -0.111111  0.444444  0.500000      2.000000

 Following cartesian coordinates:
            Coordinates               Weight
  0.000000  0.000000  0.000000      1.000000
  0.022519  0.013002  0.000000      2.000000
  0.045037  0.026005  0.000000      2.000000
  0.067556  0.039007  0.000000      2.000000
  0.090075  0.052010  0.000000      2.000000
  0.000001  0.026003  0.000000      2.000000
  0.022520  0.039005  0.000000      2.000000
  0.045038  0.052008  0.000000      2.000000
  0.067557  0.065010  0.000000      2.000000
  0.090076  0.078013  0.000000      2.000000
 -0.090073 -0.026007  0.000000      2.000000
 -0.067555 -0.013005  0.000000      2.000000
 -0.045036 -0.000002  0.000000      2.000000
 -0.022517  0.013000  0.000000      2.000000
  0.000002  0.052006  0.000000      2.000000
  0.022521  0.065008  0.000000      2.000000
  0.045040  0.078011  0.000000      2.000000
  0.067558  0.091013  0.000000      2.000000
  0.090077  0.104016  0.000000      2.000000
 -0.090072 -0.000004  0.000000      2.000000
 -0.067554  0.012998  0.000000      2.000000
 -0.045035  0.026001  0.000000      2.000000
 -0.022516  0.039003  0.000000      2.000000
  0.000004  0.078009  0.000000      2.000000
  0.022522  0.091011  0.000000      2.000000
  0.045041  0.104014  0.000000      2.000000
  0.067559  0.117016  0.000000      2.000000
  0.090078  0.130019  0.000000      2.000000
 -0.090071  0.025999  0.000000      2.000000
 -0.067552  0.039001  0.000000      2.000000
 -0.045034  0.052004  0.000000      2.000000
 -0.022515  0.065006  0.000000      2.000000
  0.000005  0.104012  0.000000      2.000000
  0.022523  0.117014  0.000000      2.000000
  0.045042  0.130017  0.000000      2.000000
  0.067561  0.143019  0.000000      2.000000
  0.090079  0.156022  0.000000      2.000000
 -0.090070  0.052002  0.000000      2.000000
 -0.067551  0.065004  0.000000      2.000000
 -0.045033  0.078007  0.000000      2.000000
 -0.022514  0.091009  0.000000      2.000000
  0.000000  0.000000  0.030976      2.000000
  0.022519  0.013002  0.030976      2.000000
  0.045037  0.026005  0.030976      2.000000
  0.067556  0.039007  0.030976      2.000000
  0.090075  0.052010  0.030976      2.000000
 -0.090075 -0.052010  0.030976      2.000000
 -0.067556 -0.039007  0.030976      2.000000
 -0.045037 -0.026005  0.030976      2.000000
 -0.022519 -0.013002  0.030976      2.000000
  0.000001  0.026003  0.030976      2.000000
  0.022520  0.039005  0.030976      2.000000
  0.045038  0.052008  0.030976      2.000000
  0.067557  0.065010  0.030976      2.000000
  0.090076  0.078013  0.030976      2.000000
 -0.090073 -0.026007  0.030976      2.000000
 -0.067555 -0.013005  0.030976      2.000000
 -0.045036 -0.000002  0.030976      2.000000
 -0.022517  0.013000  0.030976      2.000000
  0.000002  0.052006  0.030976      2.000000
[...]
  0.067559  0.117016  0.061951      2.000000
  0.090078  0.130019  0.061951      2.000000
 -0.090071  0.025999  0.061951      2.000000
 -0.067552  0.039001  0.061951      2.000000
 -0.045034  0.052004  0.061951      2.000000
 -0.022515  0.065006  0.061951      2.000000
  0.000005  0.104012  0.061951      2.000000
  0.022523  0.117014  0.061951      2.000000
  0.045042  0.130017  0.061951      2.000000
[...]

[...]

----------------------------------------- Iteration    1(  13)  ---------------------------------------

 eigenvalue-minimisations  : 19428
 total energy-change (2. order) : 0.2397874E-06  (-0.5180656E-07)
 number of electron     128.0000011 magnetization
 augmentation part        3.1350524 magnetization

 Free energy of the ion-electron system (eV)
  alpha Z        PSCENC =       490.30840325
  Ewald energy   TEWEN  =     -5655.84146453
  -Hartree energ DENC   =      -402.12027402
  -exchange      EXHF   =         0.00000000
  -V(xc)+E(xc)   XCENC  =       477.95915382
  PAW double counting   =      2302.99566354    -2344.88663286
  entropy T*S    EENTRO =        -0.03054244
  eigenvalues    EBANDS =       164.68395949
  atomic energy  EATOM  =      4708.80920826
  free energy    TOTEN  =      -258.12252548 eV

  energy without entropy =     -258.09198304  energy(sigma->0) =     -258.10725426

 average (electrostatic) potential at core
  the test charge radii are     0.6991
  (the norm of the test charge is              1.0000)
       1 -45.0158       2 -45.0158       3 -45.0137       4 -45.0178       5 -45.0158
       6 -45.0158       7 -45.0161       8 -45.0155       9 -45.0168      10 -45.0175
      11 -45.0171      12 -45.0151      13 -45.0143      14 -45.0149      15 -45.0146
      16 -45.0166      17 -44.4045      18 -44.4041      19 -44.4021      20 -44.4060
      21 -44.4042      22 -44.4042      23 -44.4044      24 -44.4039      25 -44.4049
      26 -44.4036      27 -44.4043      28 -44.4055      29 -44.4047      30 -44.4035
      31 -44.4041      32 -44.4027

 E-fermi :  11.7077     XC(G=0): -13.6426     alpha+bet :-18.8781

 k-point     1 :       0.0000    0.0000    0.0000
  band No.  band energies     occupation
      1     -11.7668      2.00000
      2      -9.9840      2.00000
      3      -9.9782      2.00000
      4      -6.2610      2.00000
      5      -6.0734      2.00000
      6      -6.0699      2.00000
      7      -6.0662      2.00000
      8      -5.0945      2.00000
      9      -5.0923      2.00000
     10      -5.0895      2.00000
     11      -4.5036      2.00000
     12      -4.4985      2.00000
     13      -4.4962      2.00000
     14      -4.4959      2.00000
     15      -4.4937      2.00000
     16      -4.4885      2.00000
     17      -3.4117      2.00000
     18      -3.4062      2.00000
     19      -3.4047      2.00000
     20      -3.4040      2.00000
     21      -3.4031      2.00000
     22      -3.3972      2.00000
     23      -1.8421      2.00000
     24      -1.1489      2.00000
     25      -1.1453      2.00000
     26      -1.1414      2.00000
     27      -0.9918      2.00000
     28      -0.9891      2.00000
     29      -0.9862      2.00000
     30       2.8727      2.00000
     31       2.8756      2.00000
     32       2.8769      2.00000
     33       3.9050      2.00000
     34       3.9101      2.00000
     35       3.9114      2.00000
     36       3.9123      2.00000
     37       3.9145      2.00000
     38       3.9162      2.00000
     39       3.9540      2.00000
     40       3.9576      2.00000
     41       3.9600      2.00000
     42       4.9392      2.00000
     43       4.9450      2.00000
     44       5.1717      2.00000
     45       5.1749      2.00000
     46       5.1769      2.00000
     47       6.8259      2.00000
     48       6.8320      2.00000
     49       7.2392      2.00000
     50       7.2411      2.00000
     51       7.2440      2.00000
     52       7.3596      2.00000
     53       7.3646      2.00000
     54       7.3694      2.00000
     55       7.3749      2.00000
     56       7.8713      2.00000
     57       7.8768      2.00000
     58       9.4098      2.00000
     59       9.4132      2.00000
     60       9.4152      2.00000
[...]
     70      12.3387      0.00000
     71      14.8295      0.00000
     72      14.8346      0.00000
     73      14.8381      0.00000
     74      14.9084      0.00000
     75      14.9099      0.00000
     76      14.9127      0.00000
     77      17.8073      0.00000
     78      17.8091      0.00000
     79      17.8110      0.00000
     80      18.0311      0.00000
     81      18.0370      0.00000
     82      18.0492      0.00000
     83      18.0511      0.00000
     84      18.0540      0.00000

[...]

 k-point   163 :      -0.1111    0.4444    0.5000
  band No.  band energies     occupation
      1     -10.3098      2.00000
      2     -10.3054      2.00000
      3      -8.9329      2.00000
      4      -8.9286      2.00000
      5      -7.5856      2.00000
      6      -7.5814      2.00000
      7      -6.9723      2.00000
      8      -6.9687      2.00000
      9      -5.6984      2.00000
     10      -5.6947      2.00000
     11      -5.6620      2.00000
     12      -5.6579      2.00000
     13      -4.4697      2.00000
     14      -4.4663      2.00000
     15      -3.1365      2.00000
     16      -3.1346      2.00000
     17      -2.4885      2.00000
     18      -2.4843      2.00000
     19      -1.0946      2.00000
     20      -1.0904      2.00000
     21      -0.8406      2.00000
     22      -0.8399      2.00000
     23       0.1865      2.00000
     24       0.1899      2.00000
     25       0.4486      2.00000
     26       0.4494      2.00000
     27       0.7843      2.00000
     28       0.7848      2.00000
     29       1.6377      2.00000
     30       1.6408      2.00000
     31       1.9949      2.00000
     32       1.9957      2.00000
     33       2.0932      2.00000
     34       2.0966      2.00000
     35       2.2736      2.00000
     36       2.2769      2.00000
     37       3.2934      2.00000
     38       3.2950      2.00000
     39       3.4198      2.00000
     40       3.4231      2.00000
     41       3.4781      2.00000
     42       3.4817      2.00000
     43       3.8121      2.00000
     44       3.8154      2.00000
     45       4.5856      2.00000
     46       4.5867      2.00000
     47       4.7777      2.00000
     48       4.7831      2.00000
     49       5.3652      2.00000
     50       5.3678      2.00000
     51       5.3756      2.00000
     52       5.3787      2.00000
     53       6.3392      2.00000
     54       6.3405      2.00000
     55       6.3909      2.00000
     56       6.3918      2.00000
     57       9.9732      2.00000
     58       9.9770      2.00000
     59      10.1278      2.00000
     60      10.1336      2.00000
[...]
     70      13.7922      0.00000
     71      15.5108      0.00000
     72      15.5167      0.00000
     73      16.0382      0.00000
     74      16.0417      0.00000
     75      16.0661      0.00000
     76      16.0721      0.00000
     77      16.2465      0.00000
     78      16.2514      0.00000
     79      17.5377      0.00000
     80      17.5421      0.00000
     81      18.1723      0.00000
     82      18.1811      0.00000
     83      19.1739      0.00000
     84      19.1796      0.00000

 soft charge-density along one line, spin component           1
         0         1         2         3         4         5         6         7         8         9
 total charge-density along one line

------------------------ aborting loop because EDIFF is reached ----------------------------------------

         DFTD3 V3.0 Rev 1
 IVDW         = 11
 DF pbe
 parameters
 VDW_S6       =    1.0000
 VDW_S8       =    0.7220
 VDW_SR       =    1.2170
 rs18     =    1.0000
 alpha6   =   14.0000
 alpha8   =   16.0000
 k1-k3    =   16.0000    1.3333   -4.0000
 VDW_RADIUS   =   50.2022 A
 VDW_CNRADIUS =   21.1671 A
 Edisp (eV)   -3.76278

 E6    (eV) :    -2.3155
 E8    (eV) :    -1.4473
 % E8        : 38.46

  FORCE on cell =-STRESS in cart. coord.  units (eV):
  Direction    XX          YY          ZZ          XY          YZ          ZX
  Alpha Z   490.30840   490.30840   490.30840
  Ewald   -1318.75164 -1319.15184 -3017.96120     0.79487    -0.00002    -0.00867
  Hartree   231.70077   231.65211   -61.23119     0.11712     0.00001    -0.00184
  E(xc)    -483.45788  -483.45965  -489.17394     0.00214     0.00000     0.00000
  Local    -761.93205  -761.55792  1036.10690    -0.76138    -0.00001     0.00870
  n-local  -106.46939  -106.48469  -124.43636    -0.00321     0.00000     0.00024
  augment   -12.84448   -12.84382   -11.71667    -0.00120    -0.00000     0.00001
  Kinetic  1972.21142  1972.34249  2375.08027    -0.05305    -0.00004    -0.00115
  Fock        0.00000     0.00000     0.00000     0.00000     0.00000     0.00000
  vdW        -3.26787    -3.26776    -3.07072     0.00000     0.00000     0.00002
  Total       7.49728     7.53733   193.90550     0.09530    -0.00006    -0.00268
  in kB      70.58810    70.96520  1825.65283     0.89727    -0.00058    -0.02523

 VOLUME and BASIS-vectors are now :
  energy-cutoff  :      600.00
  volume of cell :      170.17
      direct lattice vectors                 reciprocal lattice vectors
     4.934310885 -0.000222400  0.000000000     0.202667819  0.117022500  0.000000000
    -2.467348046  4.273127376  0.000000000     0.000010548  0.234026730  0.000000000
     0.000000000  0.000000000  8.070890774     0.000000000  0.000000000  0.123902061

  length of vectors
     4.934310890  4.934310890  8.070890774     0.234026730  0.234026730  0.123902061

 FORCES acting on ions
    electron-ion (+dipol)            ewald-force                    non-local-force                 convergence-correction
   -.115E+00 0.837E-03 0.226E+00   0.113E+00 0.126E-02 -.234E+00   -.240E-02 0.122E-02 0.161E-01   0.161E-03 0.610E-05 -.194E-04
   0.364E+00 -.752E-02 0.703E+00   -.354E+00 0.985E-02 -.739E+00   0.372E-01 0.995E-03 0.349E-01   -.115E-03 0.226E-04 -.156E-04
   -.493E+00 -.496E+00 0.709E+00   0.574E+00 0.540E+00 -.745E+00   0.282E-01 -.407E-02 0.350E-01   -.484E-04 0.343E-04 -.124E-04
   -.501E+00 0.498E+00 0.698E+00   0.582E+00 -.536E+00 -.733E+00   0.267E-01 0.716E-02 0.349E-01   -.216E-04 -.622E-04 -.202E-04
   -.232E-02 0.352E-03 -.131E+00   0.962E-03 0.173E-02 0.132E+00   -.236E-02 0.120E-02 0.291E-03   0.626E-04 0.670E-05 0.152E-04
   0.504E-03 0.350E-03 -.149E+00   -.728E-02 0.166E-02 0.149E+00   -.264E-02 0.121E-02 -.674E-02   -.627E-04 0.191E-04 0.178E-04
   -.878E-03 -.478E-03 -.149E+00   -.285E-02 0.432E-02 0.150E+00   -.311E-02 0.928E-03 -.678E-02   -.102E-04 0.283E-04 0.155E-04
   -.881E-03 0.113E-02 -.149E+00   -.297E-02 -.727E-03 0.149E+00   -.309E-02 0.145E-02 -.670E-02   0.993E-05 -.498E-04 0.228E-04
   0.115E+00 -.428E-01 -.738E-01   -.112E+00 0.401E-01 0.805E-01   -.721E-03 0.439E-03 0.282E-02   -.995E-05 -.510E-04 -.416E-04
   -.136E+00 -.103E+00 -.224E+00   0.147E+00 0.106E+00 0.240E+00   0.880E-02 0.266E-02 0.202E-01   0.311E-05 0.789E-04 0.425E-04
   0.413E-01 0.144E+00 -.148E+00   -.396E-01 -.151E+00 0.160E+00   0.212E-02 -.668E-02 0.115E-01   -.118E-03 -.203E-04 -.425E-06
   -.293E-01 -.216E-03 -.427E-01   0.332E-01 -.187E-02 0.471E-01   0.641E-03 -.120E-02 -.536E-02   0.122E-03 -.120E-04 0.342E-05
   -.134E+00 0.101E+00 -.222E+00   0.145E+00 -.108E+00 0.238E+00   0.884E-02 -.508E-02 0.203E-01   0.218E-04 -.765E-04 0.383E-04
   0.114E+00 0.421E-01 -.757E-01   -.111E+00 -.436E-01 0.823E-01   -.786E-03 -.289E-02 0.303E-02   -.282E-04 0.556E-04 -.461E-04
   0.405E-01 -.144E+00 -.149E+00   -.386E-01 0.146E+00 0.160E+00   0.214E-02 0.438E-02 0.117E-01   -.124E-03 0.223E-04 -.210E-05
   -.288E-01 -.207E-03 -.435E-01   0.326E-01 -.189E-02 0.479E-01   0.765E-03 -.120E-02 -.524E-02   0.128E-03 -.762E-05 -.918E-06
   0.120E+01 0.698E-02 0.210E-01   -.137E+01 -.107E-01 0.463E-02   -.134E+00 -.170E-02 -.222E+00   -.140E-03 -.717E-05 -.551E-04
   -.322E+00 0.957E-03 0.280E+00   0.334E+00 -.289E-02 -.276E+00   0.220E-01 -.136E-02 -.186E-02   0.215E-03 -.169E-04 -.927E-05
   -.435E-01 0.162E+00 0.280E+00   0.335E-01 -.177E+00 -.276E+00   0.855E-02 -.903E-02 -.194E-02   -.146E-04 -.120E-03 -.613E-05
   -.432E-01 -.160E+00 0.280E+00   0.334E-01 0.171E+00 -.276E+00   0.854E-02 0.652E-02 -.178E-02   -.315E-04 0.149E-03 -.143E-04
   0.567E-02 0.759E-03 -.173E+00   -.360E-02 -.287E-02 0.173E+00   0.344E-02 -.127E-02 0.997E-03   -.121E-03 -.429E-05 0.270E-04
   -.747E-02 0.738E-03 -.137E+00   0.133E-01 -.287E-02 0.136E+00   0.389E-02 -.128E-02 0.264E-02   0.121E-03 -.159E-04 0.129E-04
   -.109E-02 0.443E-02 -.137E+00   0.509E-02 -.760E-02 0.136E+00   0.194E-02 -.238E-02 0.260E-02   0.974E-05 -.555E-04 0.113E-04
   -.111E-02 -.292E-02 -.137E+00   0.508E-02 0.185E-02 0.136E+00   0.195E-02 -.141E-03 0.267E-02   -.956E-05 0.784E-04 0.177E-04
   -.135E+00 0.102E+00 -.232E+00   0.139E+00 -.105E+00 0.240E+00   0.221E-02 -.129E-02 0.752E-02   -.767E-05 0.437E-04 0.358E-04
   0.111E+00 0.389E-01 -.789E-01   -.120E+00 -.389E-01 0.806E-01   -.209E-02 0.133E-02 0.388E-02   0.583E-06 -.529E-04 -.284E-04
   0.430E-01 -.143E+00 -.155E+00   -.476E-01 0.152E+00 0.160E+00   -.220E-02 0.378E-02 0.570E-02   0.794E-04 -.123E-05 0.234E-05
   -.317E-01 -.925E-03 -.333E-01   0.252E-01 0.300E-02 0.471E-01   -.706E-02 0.124E-02 -.160E-01   -.766E-04 0.409E-05 0.415E-06
   0.111E+00 -.403E-01 -.807E-01   -.119E+00 0.447E-01 0.823E-01   -.225E-02 0.126E-02 0.399E-02   -.189E-04 0.551E-04 -.340E-04
   -.134E+00 -.102E+00 -.230E+00   0.137E+00 0.109E+00 0.238E+00   0.224E-02 0.386E-02 0.782E-02   0.129E-04 -.491E-04 0.299E-04
   0.421E-01 0.140E+00 -.156E+00   -.466E-01 -.145E+00 0.160E+00   -.225E-02 -.129E-02 0.590E-02   0.838E-04 -.158E-04 -.221E-05
   -.311E-01 -.915E-03 -.342E-01   0.246E-01 0.300E-02 0.479E-01   -.684E-02 0.125E-02 -.158E-01   -.778E-04 0.147E-05 -.326E-05
   0.111E-02 -.355E-05 0.553E-01   0.399E-14 0.344E-13 0.952E-14   -.109E-02 0.104E-04 -.552E-01   -.539E-05 -.128E-04 -.185E-04

 POSITION                                       TOTAL-FORCE (eV/Angst)
      2.46715     -0.00011      1.00886        -0.004679      0.003321      0.008446
      4.93431     -0.00022      1.00886         0.046318      0.003343     -0.000213
      1.23348      2.13645      1.00886         0.109930      0.040192     -0.001078
      3.70064      2.13634      1.00886         0.107132     -0.031636      0.000574
      2.46715     -0.00011      5.04431        -0.003687      0.003294      0.001066
      4.93431     -0.00022      5.04431        -0.009455      0.003243     -0.006650
      1.23348      2.13645      5.04431        -0.006844      0.004783     -0.006668
      3.70064      2.13634      5.04431        -0.006924      0.001816     -0.006632
     -1.23367      2.13656      3.02658         0.002121     -0.002371      0.009512
      1.23348      2.13645      3.02658         0.019903      0.006069      0.036753
     -2.46735      4.27313      3.02658         0.003709     -0.013505      0.023047
     -0.00019      4.27302      3.02658         0.004670     -0.003302     -0.000881
     -1.23367      2.13656      7.06203         0.019631     -0.012339      0.036172
      1.23348      2.13645      7.06203         0.002143     -0.004306      0.009658
     -2.46735      4.27313      7.06203         0.003938      0.006836      0.022985
     -0.00019      4.27302      7.06203         0.004748     -0.003304     -0.000725
      0.00502      1.42441      1.01739        -0.301526     -0.005427     -0.197097
      2.46696      1.42430      1.00886         0.034711     -0.003310      0.001837
     -1.23387      3.56098      1.00886        -0.001449     -0.024279      0.001780
      1.23329      3.56086      1.00886        -0.001234      0.017364      0.001894
     -0.00019      1.42441      5.04431         0.005422     -0.003392      0.001107
      2.46696      1.42430      5.04431         0.009788     -0.003440      0.001720
     -1.23387      3.56098      5.04431         0.005958     -0.005585      0.001695
      1.23329      3.56086      5.04431         0.005923     -0.001149      0.001743
      1.23367      0.71204      3.02658         0.005917     -0.003943      0.015846
      3.70083      0.71193      3.02658        -0.010633      0.001173      0.005613
     -0.00000      2.84860      3.02658        -0.006779      0.012980      0.010717
      2.46715      2.84849      3.02658        -0.013629      0.003328     -0.002107
      1.23367      0.71204      7.06203        -0.010760      0.005738      0.005664
      3.70083      0.71193      7.06203         0.005750      0.010579      0.015639
     -0.00000      2.84860      7.06203        -0.006687     -0.006107      0.010671
      2.46715      2.84849      7.06203        -0.013428      0.003335     -0.002088
    total drift:                                0.000015     -0.000006      0.000000

  FREE ENERGIE OF THE ION-ELECTRON SYSTEM (eV)
  free  energy   TOTEN  =      -261.88530445 eV

  energy  without entropy=     -261.85476202  energy(sigma->0) =     -261.87003324