 vasp.5.3.5 31Mar14 (build Nov 02 2014 15:17:37) complex

 executed on        ion-Intel-MKL date 2016.08.14  07:03:51

 INCAR:
 POTCAR:   PAW_PBE C 08Apr2002
 POTCAR:   PAW_PBE C 08Apr2002
   VRHFIN =C: s2p2

   TITEL  = PAW_PBE C 08Apr2002
   POMASS =   12.011; ZVAL   =    4.000    mass and valenz
   ENMAX  =  400.000; ENMIN  =  300.000 eV
   QCUT   =   -5.516; QGAM   =   11.032    optimization parameters

   Description
     l     E      TYP  RCUT    TYP  RCUT
     0   .000     23  1.200
     0   .000     23  1.200
     1   .000     23  1.500
     1  2.500     23  1.500
     2   .000      7  1.500

 PAW_PBE C 08Apr2002                    :

 POSCAR: CIF file
  positions in direct lattice
  velocities in cartesian coordinates
 exchange correlation table for  LEXCH =        8
   RHO(1)=    0.500       N(1)  =     2000
   RHO(2)=  100.500       N(2)  =     4000

 ion  position               nearest neighbor table
   1  1.000  0.000  0.250-   3 1.42   3 1.43   3 1.43
   2  0.000  1.000  0.750-   4 1.42   4 1.43   4 1.43
   3  0.333  0.667  0.250-   1 1.42   1 1.43   1 1.43
   4  0.667  0.333  0.750-   2 1.42   2 1.43   2 1.43

  LATTYP: Found a base centered orthorhombic cell.
 ALAT       =     2.4712325073
 B/A-ratio  =     1.7272928269
 C/A-ratio  =     3.0994680561

  Lattice vectors:

 A1 = (   2.4661411109,   0.0029395191,   0.0000000000)
 A2 = (  -1.2305248572,   2.1372106108,   0.0000000000)
 A3 = (   0.0000000000,   0.0000000000,   7.6595062156)

Analysis of symmetry for initial positions (statically):
 Subroutine PRICEL returns:
 Original cell was already a primitive cell.

 Routine SETGRP: Setting up the symmetry group for a
 base centered orthorhombic supercell.

 Subroutine GETGRP returns: Found  8 space group operations
 (whereof  4 operations were pure point group operations)
 out of a pool of  8 trial point group operations.

The static configuration has the point symmetry C_2h.
 The point group associated with its full space group is D_2h.

Analysis of symmetry for dynamics (positions and initial velocities):
 Subroutine PRICEL returns:
 Original cell was already a primitive cell.

 Routine SETGRP: Setting up the symmetry group for a
 base centered orthorhombic supercell.

 Subroutine GETGRP returns: Found  8 space group operations
 (whereof  4 operations were pure point group operations)
 out of a pool of  8 trial point group operations.

The dynamic configuration has the point symmetry C_2h.
 The point group associated with its full space group is D_2h.

 KPOINTS: B4C B11C-CBC

Automatic generation of k-mesh.
Space group operators:
 irot       det(A)        alpha          n_x          n_y          n_z        tau_x        tau_y        tau_z
    1     1.000000     0.000000     1.000000     0.000000     0.000000     0.000000     0.000000     0.000000
    2    -1.000000     0.000000     1.000000     0.000000     0.000000     0.000000     0.000000     0.000000
    3     1.000000   180.000000    -0.500000    -0.866025     0.000000     0.000000     0.000000     0.000000
    4    -1.000000   180.000000    -0.500000    -0.866025     0.000000     0.000000     0.000000     0.000000
    5     1.000000   180.000000     0.000000     0.000000     1.000000     0.000000     0.000000     0.500000
    6    -1.000000   180.000000     0.000000     0.000000     1.000000     0.000000     0.000000     0.500000
    7     1.000000   180.000000     0.866025    -0.500000     0.000000     0.000000     0.000000     0.500000
    8    -1.000000   180.000000     0.866025    -0.500000     0.000000     0.000000     0.000000     0.500000

 Subroutine IBZKPT returns following result:

 Found    455 irreducible k-points:

 Following reciprocal coordinates:
            Coordinates               Weight
  0.000000  0.000000  0.000000      1.000000
  0.055556  0.000000  0.000000      4.000000
  0.111111  0.000000  0.000000      4.000000
  0.166667 -0.000000  0.000000      4.000000
  0.222222  0.000000  0.000000      4.000000
  0.277778  0.000000  0.000000      4.000000
  0.333333 -0.000000  0.000000      4.000000
  0.388889  0.000000  0.000000      4.000000
  0.444444  0.000000  0.000000      4.000000
  0.500000  0.000000  0.000000      2.000000
  0.055556  0.055556  0.000000      2.000000
  0.111111  0.055556  0.000000      4.000000
  0.166667  0.055556  0.000000      4.000000
  0.222222  0.055556  0.000000      4.000000
  0.277778  0.055556  0.000000      4.000000
  0.333333  0.055556  0.000000      4.000000
  0.388889  0.055556  0.000000      4.000000
  0.444444  0.055556  0.000000      4.000000
  0.500000  0.055556  0.000000      4.000000
 -0.444444  0.055556  0.000000      4.000000
 -0.388889  0.055556  0.000000      4.000000
 -0.333333  0.055556  0.000000      4.000000
 -0.277778  0.055556  0.000000      4.000000
 -0.222222  0.055556  0.000000      4.000000
 -0.166667  0.055556  0.000000      4.000000
 -0.111111  0.055556  0.000000      4.000000
 -0.055556  0.055556  0.000000      2.000000
  0.111111  0.111111  0.000000      2.000000
  0.166667  0.111111  0.000000      4.000000
  0.222222  0.111111  0.000000      4.000000
  0.277778  0.111111  0.000000      4.000000
  0.333333  0.111111  0.000000      4.000000
  0.388889  0.111111  0.000000      4.000000
  0.444444  0.111111  0.000000      4.000000
  0.500000  0.111111  0.000000      4.000000
 -0.444444  0.111111  0.000000      4.000000
 -0.388889  0.111111  0.000000      4.000000
 -0.333333  0.111111  0.000000      4.000000
 -0.277778  0.111111  0.000000      4.000000
 -0.222222  0.111111  0.000000      4.000000
 -0.166667  0.111111  0.000000      4.000000
 -0.111111  0.111111  0.000000      2.000000
  0.166667  0.166667  0.000000      2.000000
  0.222222  0.166667  0.000000      4.000000
  0.277778  0.166667  0.000000      4.000000
  0.333333  0.166667  0.000000      4.000000
  0.388889  0.166667  0.000000      4.000000
  0.444444  0.166667  0.000000      4.000000
  0.500000  0.166667  0.000000      4.000000
 -0.444444  0.166667  0.000000      4.000000
 -0.388889  0.166667  0.000000      4.000000
 -0.333333  0.166667  0.000000      4.000000
 -0.277778  0.166667  0.000000      4.000000
 -0.222222  0.166667  0.000000      4.000000
 -0.166667  0.166667  0.000000      2.000000
  0.222222  0.222222  0.000000      2.000000
  0.277778  0.222222  0.000000      4.000000
  0.333333  0.222222  0.000000      4.000000
  0.388889  0.222222  0.000000      4.000000
  0.444444  0.222222  0.000000      4.000000
[...]
  0.388889  0.333333  0.500000      4.000000
  0.444444  0.333333  0.500000      4.000000
  0.500000  0.333333  0.500000      4.000000
 -0.444444  0.333333  0.500000      4.000000
 -0.388889  0.333333  0.500000      4.000000
 -0.333333  0.333333  0.500000      2.000000
  0.388889  0.388889  0.500000      2.000000
  0.444444  0.388889  0.500000      4.000000
  0.500000  0.388889  0.500000      4.000000
 -0.444444  0.388889  0.500000      4.000000
 -0.388889  0.388889  0.500000      2.000000
  0.444444  0.444444  0.500000      2.000000
  0.500000  0.444444  0.500000      4.000000
 -0.444444  0.444444  0.500000      2.000000
  0.500000  0.500000  0.500000      1.000000

 Following cartesian coordinates:
            Coordinates               Weight
  0.000000  0.000000  0.000000      1.000000
  0.022512  0.012961  0.000000      4.000000
  0.045024  0.025923  0.000000      4.000000
  0.067536  0.038884  0.000000      4.000000
  0.090047  0.051846  0.000000      4.000000
  0.112559  0.064807  0.000000      4.000000
  0.135071  0.077769  0.000000      4.000000
  0.157583  0.090730  0.000000      4.000000
  0.180095  0.103692  0.000000      4.000000
  0.202607  0.116653  0.000000      2.000000
  0.022481  0.038938  0.000000      2.000000
  0.044993  0.051900  0.000000      4.000000
  0.067505  0.064861  0.000000      4.000000
  0.090017  0.077823  0.000000      4.000000
  0.112528  0.090784  0.000000      4.000000
  0.135040  0.103745  0.000000      4.000000
  0.157552  0.116707  0.000000      4.000000
  0.180064  0.129668  0.000000      4.000000
  0.202576  0.142630  0.000000      4.000000
 -0.180126 -0.077715  0.000000      4.000000
 -0.157614 -0.064754  0.000000      4.000000
 -0.135102 -0.051792  0.000000      4.000000
 -0.112590 -0.038831  0.000000      4.000000
 -0.090078 -0.025869  0.000000      4.000000
 -0.067567 -0.012908  0.000000      4.000000
 -0.045055  0.000054  0.000000      4.000000
 -0.022543  0.013015  0.000000      2.000000
  0.044962  0.077876  0.000000      2.000000
  0.067474  0.090838  0.000000      4.000000
  0.089986  0.103799  0.000000      4.000000
  0.112497  0.116761  0.000000      4.000000
  0.135009  0.129722  0.000000      4.000000
  0.157521  0.142684  0.000000      4.000000
  0.180033  0.155645  0.000000      4.000000
  0.202545  0.168607  0.000000      4.000000
 -0.180157 -0.051739  0.000000      4.000000
 -0.157645 -0.038777  0.000000      4.000000
 -0.135133 -0.025816  0.000000      4.000000
 -0.112621 -0.012854  0.000000      4.000000
 -0.090109  0.000107  0.000000      4.000000
 -0.067598  0.013069  0.000000      4.000000
 -0.045086  0.026030  0.000000      2.000000
  0.067443  0.116814  0.000000      2.000000
  0.089955  0.129776  0.000000      4.000000
  0.112466  0.142737  0.000000      4.000000
  0.134978  0.155699  0.000000      4.000000
  0.157490  0.168660  0.000000      4.000000
  0.180002  0.181622  0.000000      4.000000
  0.202514  0.194583  0.000000      4.000000
 -0.180188 -0.025762  0.000000      4.000000
 -0.157676 -0.012801  0.000000      4.000000
 -0.135164  0.000161  0.000000      4.000000
 -0.112652  0.013122  0.000000      4.000000
 -0.090140  0.026084  0.000000      4.000000
 -0.067629  0.039045  0.000000      2.000000
  0.089924  0.155752  0.000000      2.000000
  0.112436  0.168714  0.000000      4.000000
  0.134947  0.181675  0.000000      4.000000
  0.157459  0.194637  0.000000      4.000000
  0.179971  0.207598  0.000000      4.000000
[...]
  0.157397  0.246590  0.065278      4.000000
  0.179909  0.259551  0.065278      4.000000
  0.202421  0.272513  0.065278      4.000000
 -0.180281  0.052168  0.065278      4.000000
 -0.157769  0.065129  0.065278      4.000000
 -0.135257  0.078091  0.065278      2.000000
  0.157366  0.272567  0.065278      2.000000
  0.179878  0.285528  0.065278      4.000000
  0.202390  0.298490  0.065278      4.000000
 -0.180312  0.078144  0.065278      4.000000
 -0.157800  0.091106  0.065278      2.000000
  0.179847  0.311505  0.065278      2.000000
  0.202359  0.324466  0.065278      4.000000
 -0.180343  0.104121  0.065278      2.000000
  0.202328  0.350443  0.065278      1.000000

 TETIRR: Found   3888 inequivalent tetrahedra from    15552

 I would recommend the setting:
   dimension x,y,z NGX =    20 NGY =   20 NGZ =   61
 SYSTEM =  graphite
 POSCAR =  CIF file

 Startparameter for this run:
   NWRITE =      2    write-flag & timer
   PREC   = accura    normal or accurate (medium, high low for compatibility)
   ISTART =      0    job   : 0-new  1-cont  2-samecut
   ICHARG =      2    charge: 1-file 2-atom 10-const
   ISPIN  =      1    spin polarized calculation?
   LNONCOLLINEAR =      F non collinear calculations
   LSORBIT =      F    spin-orbit coupling
[...]
 aliasing errors are usually negligible using standard VASP settings
 and one can safely disregard these warnings

 parallel 3D FFT for wavefunctions:
    minimum data exchange during FFTs selected (reduces bandwidth)
 parallel 3D FFT for charge:
    minimum data exchange during FFTs selected (reduces bandwidth)

 Broyden mixing: mesh for mixing (old mesh)
   NGX =  9   NGY =  9   NGZ = 31
  (NGX  = 40   NGY  = 40   NGZ  =128)
  gives a total of   2511 points

 initial charge density was supplied:
 charge density of overlapping atoms calculated
 number of electron      16.0000000 magnetization
 keeping initial charge density in first step

 Maximum index for augmentation-charges         1375 (set IRDMAX)

 First call to EWALD:  gamma=   0.517
 Maximum number of real-space cells 4x 4x 2
 Maximum number of reciprocal cells 2x 2x 6

 FEWALD executed in parallel

----------------------------------------- Iteration    1(   1)  ---------------------------------------

 BZINTS: Fermi energy: 13.073395; 16.000000 electrons
         Band energy: -25.249062;  BLOECHL correction: -0.349899

 eigenvalue-minimisations  : 10928
 total energy-change (2. order) : 0.6402511E+02  (-0.8779019E+03)
 number of electron      16.0000000 magnetization
 augmentation part       16.0000000 magnetization

 Free energy of the ion-electron system (eV)
  alpha Z        PSCENC =        32.27066493
  Ewald energy   TEWEN  =      -373.92920802
  -Hartree energ DENC   =      -208.26723833
  -exchange      EXHF   =         0.00000000
  -V(xc)+E(xc)   XCENC  =        55.20072438
  PAW double counting   =       151.32577238     -155.92769107
  entropy T*S    EENTRO =         0.00000000
  eigenvalues    EBANDS =       -25.24906160
  atomic energy  EATOM  =       588.60115103
  free energy    TOTEN  =        64.02511371 eV

  energy without entropy =       64.02511371  energy(sigma->0) =       64.02511371

[...]

 BZINTS: Fermi energy:  2.284037; 16.000000 electrons
         Band energy:-123.577038;  BLOECHL correction: -0.000104

 eigenvalue-minimisations  : 15688
 total energy-change (2. order) :-0.9832798E+02  (-0.8993035E+02)
 number of electron      16.0000000 magnetization
 augmentation part       16.0000000 magnetization

[...]

 Broyden mixing:
  rms(total) = 0.77905E+00    rms(broyden)= 0.77896E+00
  rms(prec ) = 0.11692E+01
  weight for this iteration     100.00

[...]

 BZINTS: Fermi energy:  2.676537; 16.000000 electrons
         Band energy:-109.406608;  BLOECHL correction:  0.000000

[...]

 eigenvalues of (default mixing * dielectric matrix)
  average eigenvalue GAMMA=   2.0356
  2.0356

[...]

 average (electrostatic) potential at core
  the test charge radii are     0.6991
  (the norm of the test charge is              1.0000)
       1 -51.8472       2 -51.8472       3 -51.8405       4 -51.8405

 E-fermi :   3.5746     XC(G=0):  -9.3983     alpha+bet : -9.9400

 k-point     1 :       0.0000    0.0000    0.0000
  band No.  band energies     occupation
      1     -15.9561      2.00000
      2     -15.8566      2.00000
      3      -4.4685      2.00000
      4      -3.5188      2.00000
      5       0.5309      2.00000
      6       0.5351      2.00000
      7       0.5859      2.00000
      8       0.5901      2.00000
      9       7.0602      0.00000
     10      11.6375      0.00000
     11      11.8191      0.00000
     12      11.8424      0.00000

[...]

 soft charge-density along one line, spin component           1
         0         1         2         3         4         5         6         7         8         9
 total charge-density along one line

------------------------ aborting loop because EDIFF is reached ----------------------------------------

         DFTD3 V3.0 Rev 1
 IVDW         = 12
 DF pbe
 parameters
 VDW_S6       =    1.0000
 VDW_S8       =    0.7875
 VDW_A1       =    0.4289
 VDW_A2       =    4.4407
 k1-k3        =   16.0000    1.3333   -4.0000
 VDW_RADIUS   =   50.2022 A
 VDW_CNRADIUS =   21.1671 A
 Edisp (eV)   -0.53412

 E6    (eV) :    -0.3849
 E8    (eV) :    -0.1492
 % E8        : 27.93

  FORCE on cell =-STRESS in cart. coord.  units (eV):
  Direction    XX          YY          ZZ          XY          YZ          ZX
  Alpha Z    32.27066    32.27066    32.27066
  Ewald     164.13968   162.77679  -700.84616    -1.18030    -0.00000     0.00000
  Hartree   225.04402   224.82050  -202.29078    -0.19357    -0.00000    -0.00000
  E(xc)     -58.34904   -58.35255   -60.63597    -0.00304     0.00000     0.00000
  Local    -587.44371  -586.10647   670.99645     1.15809    -0.00000     0.00000
  n-local   -14.43264   -13.64105   -12.78720    -0.19177     0.00348    -0.00345
  augment    -1.54259    -1.54056    -1.41381     0.00176     0.00000    -0.00000
  Kinetic   243.72879   236.19682   274.78109     2.10746    -0.05115     0.04862
  Fock        0.00000     0.00000     0.00000     0.00000     0.00000     0.00000
  vdW        -0.11059    -0.11299    -0.61204    -0.00208    -0.00000     0.00000
  Total      -0.05260    -0.33167    -0.53776    -0.24168     0.00000     0.00000
  in kB      -2.08621   -13.15384   -21.32708    -9.58485     0.00000     0.00000

 VOLUME and BASIS-vectors are now :
  energy-cutoff  :      600.00
  volume of cell :       40.40
      direct lattice vectors                 reciprocal lattice vectors
     2.466141111  0.002939519  0.000000000     0.405213711  0.233306695  0.000000000
    -1.230524857  2.137210611  0.000000000    -0.000557331  0.467578715  0.000000000
     0.000000000  0.000000000  7.659506216     0.000000000  0.000000000  0.130556719

[...]

 FORCES acting on ions
    electron-ion (+dipol)            ewald-force                    non-local-force                 convergence-correction
   0.802E+00 -.463E+00 -.114E-11   -.872E+00 0.504E+00 -.195E-13   -.386E-01 0.223E-01 0.163E-18   -.296E-04 0.171E-04 -.112E-12
   -.802E+00 0.463E+00 0.599E-13   0.872E+00 -.504E+00 0.195E-13   0.386E-01 -.223E-01 -.542E-19   0.296E-04 -.171E-04 0.139E-12
   -.804E+00 0.464E+00 0.726E-12   0.873E+00 -.504E+00 -.195E-13   0.382E-01 -.221E-01 -.163E-18   0.232E-04 -.134E-04 -.114E-12
   0.804E+00 -.464E+00 -.145E-11   -.873E+00 0.504E+00 0.195E-13   -.382E-01 0.221E-01 0.542E-19   -.232E-04 0.134E-04 0.137E-12
   -.683E-05 -.118E-04 -.180E-11   0.178E-14 0.888E-15 0.000E+00   -.167E-15 -.555E-16 0.000E+00   -.104E-09 -.181E-09 0.492E-13

 POSITION                                       TOTAL-FORCE (eV/Angst)
      2.46547      0.00333      1.91488        -0.108716      0.062767     -0.000000
     -1.22985      2.13682      5.74463         0.108716     -0.062767      0.000000
     -0.00094      1.42731      1.91488         0.107255     -0.061924     -0.000000
      1.23655      0.71284      5.74463        -0.107255      0.061924      0.000000
    total drift:                               -0.000007     -0.000012     -0.000000

  FREE ENERGIE OF THE ION-ELECTRON SYSTEM (eV)
  free  energy   TOTEN  =       -37.42033753 eV

  energy  without entropy=      -37.42033753  energy(sigma->0) =      -37.42033753

[...]

 E-fermi :   3.6544     XC(G=0):  -9.4534     alpha+bet :-10.0515

[...]

         DFTD3 V3.0 Rev 1
 Edisp (eV)   -0.53858

[...]

 d Force =-0.4894801E-02[-0.128E-01, 0.300E-02]  d Energy =-0.2576648E-02-0.232E-02
 d Force =-0.1906519E-01[-0.624E-01, 0.243E-01]  d Ewald  = 0.3770784E+01-0.379E+01

 Steepest descent step on ions:
 trial-energy change:    0.002577  1 .order    0.003020   -0.009257    0.015297
  (g-gl).g = 0.926E-02      g.g   = 0.926E-02  gl.gl    = 0.000E+00
 g(Force)  = 0.300E-02   g(Stress)= 0.626E-02 ortho     = 0.000E+00
 gamma     =   0.00000
 trial     =   1.00000
 opt step  =   0.40307  (harmonic =   0.37701) maximal distance =0.00211402
 next E    =   -37.422232   (d E  =  -0.00189)

[...]

 E-fermi :   3.6141     XC(G=0):  -9.4210     alpha+bet : -9.9847

[...]

 d Force = 0.4668001E-02[ 0.171E-02, 0.762E-02]  d Energy = 0.4432570E-02 0.235E-03
 d Force = 0.2182937E-01[ 0.647E-02, 0.372E-01]  d Ewald  =-0.2238731E+01 0.226E+01

[...]

 d Force = 0.3521322E-03[ 0.764E-04, 0.628E-03]  d Energy = 0.4141877E-02-0.379E-02
 d Force = 0.2982372E-02[ 0.359E-02, 0.237E-02]  d Ewald  = 0.5568594E+01-0.557E+01

 Conjugate gradient step on ions:
 trial-energy change:   -0.004142  1 .order   -0.004144   -0.004934   -0.003354
  (g-gl).g = 0.618E-02      g.g   = 0.639E-02  gl.gl    = 0.926E-02
 g(Force)  = 0.275E-02   g(Stress)= 0.365E-02 ortho     = 0.218E-03
 gamma     =   0.66712
 trial     =   0.75444
 opt step  =   2.35564  (harmonic =   2.35564) maximal distance =0.00370010
 next E    =   -37.429896   (d E  =  -0.00770)

[...]

 d Force =-0.1094260E-02[-0.235E-02, 0.162E-03]  d Energy = 0.3581470E-02-0.468E-02
 d Force = 0.1033573E-01[ 0.130E-01, 0.763E-02]  d Ewald  = 0.1186500E+02-0.119E+02

[...]

 d Force = 0.1478082E-04[ 0.147E-04, 0.149E-04]  d Energy = 0.1088061E-02-0.107E-02
 d Force =-0.8310686E-04[-0.841E-04,-0.821E-04]  d Ewald  = 0.1472689E+01-0.147E+01

 Conjugate gradient step on ions:
 trial-energy change:   -0.001088  1 .order   -0.001086   -0.001096   -0.001076
  (g-gl).g = 0.352E-01      g.g   = 0.348E-01  gl.gl    = 0.639E-02
 g(Force)  = 0.853E-02   g(Stress)= 0.263E-01 ortho     =-0.132E-03
 gamma     =   5.50965
 trial     =   0.03213
 opt step  =   0.12852  (harmonic =   1.73561) maximal distance =0.00011153
 next E    =   -37.459529   (d E  =  -0.02961)

[...]

 Conjugate gradient step on ions:
 trial-energy change:   -0.009340  1 .order   -0.009278   -0.015856   -0.002699
  (g-gl).g = 0.302E-01      g.g   = 0.527E-01  gl.gl    = 0.348E-01
 g(Force)  = 0.112E-02   g(Stress)= 0.515E-01 ortho     =-0.381E-02
 gamma     =   0.86625
 trial     =   0.32131
 opt step  =   0.38507  (harmonic =   0.38723) maximal distance =0.00155289
 next E    =   -37.468655   (d E  =  -0.00961)

[...]

 d Force = 0.2328653E-04[ 0.181E-04, 0.285E-04]  d Energy = 0.2781702E-03-0.255E-03
 d Force =-0.7275559E-03[-0.560E-03,-0.895E-03]  d Ewald  = 0.2219554E+01-0.222E+01

[...]

 d Force = 0.5115379E-05[ 0.500E-05, 0.523E-05]  d Energy = 0.6320715E-03-0.627E-03
 d Force =-0.1391492E-03[-0.117E-03,-0.161E-03]  d Ewald  =-0.2001120E+01 0.200E+01

 Conjugate gradient step on ions:
 trial-energy change:   -0.000632  1 .order   -0.000625   -0.000716   -0.000535
  (g-gl).g =-0.743E-02      g.g   = 0.215E-02  gl.gl    = 0.527E-01
 g(Force)  = 0.557E-04   g(Stress)= 0.209E-02 ortho     = 0.426E-04
 gamma     =  -0.14114
 trial     =   0.33406
 opt step  =   0.93955  (harmonic =   1.32220) maximal distance =0.00021591
 next E    =   -37.469822   (d E  =  -0.00116)

 FEWALD executed in parallel

[...]

 eigenvalue-minimisations  : 13496
 total energy-change (2. order) : 0.1850028E-05  (-0.8786336E-06)
 number of electron      16.0000000 magnetization
 augmentation part        0.3830876 magnetization

 Broyden mixing:
  rms(total) = 0.25014E-03    rms(broyden)= 0.25011E-03
  rms(prec ) = 0.36706E-03
  weight for this iteration     100.00

 eigenvalues of (default mixing * dielectric matrix)
  average eigenvalue GAMMA=   1.8240
  1.2546  1.2546  2.4467  2.3400

[...]

----------------------------------------- Iteration   14(   6)  ---------------------------------------

 BZINTS: Fermi energy:  4.773427; 16.000000 electrons
         Band energy: -69.160747;  BLOECHL correction: -0.000046

 eigenvalue-minimisations  : 10876
 total energy-change (2. order) :-0.4265097E-06  (-0.1147677E-06)
 number of electron      16.0000000 magnetization
 augmentation part        0.3830876 magnetization

 Free energy of the ion-electron system (eV)
  alpha Z        PSCENC =        37.33087214
  Ewald energy   TEWEN  =      -467.87718565
  -Hartree energ DENC   =      -178.22394658
  -exchange      EXHF   =         0.00000000
  -V(xc)+E(xc)   XCENC  =        57.65452169
  PAW double counting   =       277.83077485     -282.99138694
  entropy T*S    EENTRO =         0.00000000
  eigenvalues    EBANDS =       -69.16074742
  atomic energy  EATOM  =       588.60115103
  free energy    TOTEN  =       -36.83594687 eV

  energy without entropy =      -36.83594687  energy(sigma->0) =      -36.83594687

 average (electrostatic) potential at core
  the test charge radii are     0.6991
  (the norm of the test charge is              1.0000)
       1 -50.6216       2 -50.6216       3 -50.5893       4 -50.5893

 E-fermi :   4.7734     XC(G=0): -10.3840     alpha+bet :-11.4986

[...]

 k-point   455 :       0.5000    0.5000    0.5000
  band No.  band energies     occupation
      1      -9.4658      2.00000
      2      -9.4658      2.00000
      3      -8.4162      2.00000
      4      -8.4162      2.00000
      5      -1.5734      2.00000
      6      -1.5734      2.00000
      7       2.4215      2.00000
      8       2.4215      2.00000
      9       6.4319      0.00000
     10       6.4319      0.00000
     11      12.2075      0.00000
     12      12.2075      0.00000

 soft charge-density along one line, spin component           1
         0         1         2         3         4         5         6         7         8         9
 total charge-density along one line

------------------------ aborting loop because EDIFF is reached ----------------------------------------

         DFTD3 V3.0 Rev 1
 Edisp (eV)   -0.63408

 E6    (eV) :    -0.4541
 E8    (eV) :    -0.1800
 % E8        : 28.38

  FORCE on cell =-STRESS in cart. coord.  units (eV):
  Direction    XX          YY          ZZ          XY          YZ          ZX
  Alpha Z    37.33087    37.33087    37.33087
  Ewald      70.09736    70.03722  -608.01228    -0.05209    -0.00000     0.00000
  Hartree   155.69387   155.69396  -133.15509     0.00008    -0.00000    -0.00000
  E(xc)     -58.46679   -58.46767   -60.58755    -0.00076    -0.00000    -0.00000
  Local    -429.32239  -429.27491   503.98083     0.04113    -0.00000    -0.00000
  n-local   -14.41896   -13.65979   -12.83129    -0.23515     0.01160    -0.01167
  augment    -1.54600    -1.54591    -1.41790     0.00007    -0.00000     0.00000
  Kinetic   243.94850   236.62048   275.51347     2.22374    -0.15438     0.14980
  Fock        0.00000     0.00000     0.00000     0.00000     0.00000     0.00000
  vdW        -0.09293    -0.09166    -0.75365     0.00109    -0.00000     0.00000
  Total      -0.10087    -0.03301     0.06742     0.05877     0.00000     0.00000
  in kB      -4.62758    -1.51439     3.09304     2.69610     0.00000     0.00000

 VOLUME and BASIS-vectors are now :
  energy-cutoff  :      600.00
  volume of cell :       34.92
      direct lattice vectors                 reciprocal lattice vectors
     2.466437249 -0.000959643  0.000000000     0.405534294  0.234345762  0.000000000
    -1.234049700  2.135517493 -0.000000000     0.000182236  0.468375882  0.000000000
    -0.000000000 -0.000000000  6.631750728    -0.000000000  0.000000000  0.150789745

  length of vectors
     2.466437436  2.466437436  6.631750728     0.468375917  0.468375917  0.150789745

 FORCES acting on ions
    electron-ion (+dipol)            ewald-force                    non-local-force                 convergence-correction
   -.115E+00 0.665E-01 0.145E-13   0.107E+00 -.619E-01 -.180E-13   -.448E-02 0.258E-02 0.000E+00   -.121E-03 0.697E-04 -.282E-12
   0.115E+00 -.665E-01 0.365E-12   -.107E+00 0.619E-01 0.180E-13   0.448E-02 -.258E-02 0.000E+00   0.121E-03 -.697E-04 0.300E-12
   0.112E+00 -.648E-01 0.488E-12   -.107E+00 0.616E-01 -.180E-13   0.333E-02 -.192E-02 0.434E-18   0.123E-03 -.712E-04 -.284E-12
   -.112E+00 0.648E-01 0.355E-12   0.107E+00 -.616E-01 0.180E-13   -.333E-02 0.192E-02 0.434E-18   -.123E-03 0.712E-04 0.298E-12
   -.678E-05 -.117E-04 0.122E-11   0.154E-14 -.344E-14 -.183E-20   0.000E+00 0.111E-15 0.867E-18   0.130E-10 0.226E-10 0.319E-13

 POSITION                                       TOTAL-FORCE (eV/Angst)
     -0.00242      0.00140      1.65794        -0.012633      0.007294     -0.000000
      0.00242     -0.00140      4.97381         0.012633     -0.007294      0.000000
     -0.00332      1.42496      1.65794         0.009046     -0.005223      0.000000
      1.23571      0.70960      4.97381        -0.009046      0.005223     -0.000000
    total drift:                               -0.000007     -0.000012      0.000000

  FREE ENERGIE OF THE ION-ELECTRON SYSTEM (eV)
  free  energy   TOTEN  =       -37.47003172 eV

  energy  without entropy=      -37.47003172  energy(sigma->0) =      -37.47003172

 d Force = 0.8068802E-05[ 0.708E-05, 0.906E-05]  d Energy = 0.7344637E-03-0.726E-03
 d Force =-0.1401704E-03[-0.680E-04,-0.212E-03]  d Ewald  =-0.3626474E+01 0.363E+01

 reached required accuracy - stopping structural energy minimisation
 BZINTS: Fermi energy:  4.773427; 16.000000 electrons
         Band energy: -69.160747;  BLOECHL correction: -0.000046