 vasp.5.3.5 31Mar14 (build Nov 02 2014 15:17:37) complex

 executed on        ion-Intel-MKL date 2016.09.22  23:09:43

 INCAR:
 POTCAR:   PAW_PBE C 08Apr2002
 POTCAR:   PAW_PBE C 08Apr2002
   VRHFIN =C: s2p2

   TITEL  = PAW_PBE C 08Apr2002
   POMASS =   12.011; ZVAL   =    4.000    mass and valenz
   ENMAX  =  400.000; ENMIN  =  300.000 eV
   QCUT   =   -5.516; QGAM   =   11.032    optimization parameters

   Description
     l     E      TYP  RCUT    TYP  RCUT
     0   .000     23  1.200
     0   .000     23  1.200
     1   .000     23  1.500
     1  2.500     23  1.500
     2   .000      7  1.500

 PAW_PBE C 08Apr2002                    :

 POSCAR: CIF file
  positions in direct lattice
  velocities in cartesian coordinates
 exchange correlation table for  LEXCH =        8
   RHO(1)=    0.500       N(1)  =     2000
   RHO(2)=  100.500       N(2)  =     4000

 ion  position               nearest neighbor table
   1  0.999  0.001  0.250-   3 1.42   3 1.42   3 1.42
   2  0.001  0.999  0.750-   4 1.42   4 1.42   4 1.42
   3  0.333  0.667  0.250-   1 1.42   1 1.42   1 1.42
   4  0.667  0.333  0.750-   2 1.42   2 1.42   2 1.42

  LATTYP: Found a base centered orthorhombic cell.
 ALAT       =     2.4647750986
 B/A-ratio  =     1.7336081796
 C/A-ratio  =    16.2286611963

  Lattice vectors:

 A1 = (   2.4664372490,  -0.0009596430,   0.0000000000)
 A2 = (  -1.2340496996,   2.1355174929,   0.0000000000)
 A3 = (   0.0000000000,   0.0000000000,  40.0000000000)

Analysis of symmetry for initial positions (statically):
 Subroutine PRICEL returns:
 Original cell was already a primitive cell.

 Routine SETGRP: Setting up the symmetry group for a
 base centered orthorhombic supercell.

 Subroutine GETGRP returns: Found  8 space group operations
 (whereof  4 operations were pure point group operations)
 out of a pool of  8 trial point group operations.

The static configuration has the point symmetry C_2h.
 The point group associated with its full space group is D_2h.

Analysis of symmetry for dynamics (positions and initial velocities):
 Subroutine PRICEL returns:
 Original cell was already a primitive cell.

 Routine SETGRP: Setting up the symmetry group for a
 base centered orthorhombic supercell.

 Subroutine GETGRP returns: Found  8 space group operations
 (whereof  4 operations were pure point group operations)
 out of a pool of  8 trial point group operations.

The dynamic configuration has the point symmetry C_2h.
 The point group associated with its full space group is D_2h.

 KPOINTS: B4C B11C-CBC

Automatic generation of k-mesh.
Space group operators:
 irot       det(A)        alpha          n_x          n_y          n_z        tau_x        tau_y        tau_z
    1     1.000000     0.000000     1.000000     0.000000     0.000000     0.000000     0.000000     0.000000
    2    -1.000000     0.000000     1.000000     0.000000     0.000000     0.000000     0.000000     0.000000
    3     1.000000   180.000000    -0.500000    -0.866025     0.000000     0.000000     0.000000     0.000000
    4    -1.000000   180.000000    -0.500000    -0.866025     0.000000     0.000000     0.000000     0.000000
    5     1.000000   180.000000     0.000000     0.000000     1.000000     0.000000     0.000000     0.500000
    6    -1.000000   180.000000     0.000000     0.000000     1.000000     0.000000     0.000000     0.500000
    7     1.000000   180.000000     0.866025    -0.500000     0.000000     0.000000     0.000000     0.500000
    8    -1.000000   180.000000     0.866025    -0.500000     0.000000     0.000000     0.000000     0.500000

 Subroutine IBZKPT returns following result:

 Found    455 irreducible k-points:

 Following reciprocal coordinates:
            Coordinates               Weight
  0.000000  0.000000  0.000000      1.000000
  0.055556  0.000000  0.000000      4.000000
  0.111111  0.000000  0.000000      4.000000
  0.166667 -0.000000  0.000000      4.000000
  0.222222  0.000000  0.000000      4.000000
  0.277778  0.000000  0.000000      4.000000
  0.333333 -0.000000  0.000000      4.000000
  0.388889  0.000000  0.000000      4.000000
  0.444444  0.000000  0.000000      4.000000
  0.500000  0.000000  0.000000      2.000000
  0.055556  0.055556  0.000000      2.000000
  0.111111  0.055556  0.000000      4.000000
  0.166667  0.055556  0.000000      4.000000
  0.222222  0.055556  0.000000      4.000000
  0.277778  0.055556  0.000000      4.000000
  0.333333  0.055556  0.000000      4.000000
  0.388889  0.055556  0.000000      4.000000
  0.444444  0.055556  0.000000      4.000000
  0.500000  0.055556  0.000000      4.000000
 -0.444444  0.055556  0.000000      4.000000
 -0.388889  0.055556  0.000000      4.000000
 -0.333333  0.055556  0.000000      4.000000
 -0.277778  0.055556  0.000000      4.000000
 -0.222222  0.055556  0.000000      4.000000
 -0.166667  0.055556  0.000000      4.000000
 -0.111111  0.055556  0.000000      4.000000
 -0.055556  0.055556  0.000000      2.000000
  0.111111  0.111111  0.000000      2.000000
  0.166667  0.111111  0.000000      4.000000
  0.222222  0.111111  0.000000      4.000000
  0.277778  0.111111  0.000000      4.000000
  0.333333  0.111111  0.000000      4.000000
  0.388889  0.111111  0.000000      4.000000
  0.444444  0.111111  0.000000      4.000000
  0.500000  0.111111  0.000000      4.000000
 -0.444444  0.111111  0.000000      4.000000
 -0.388889  0.111111  0.000000      4.000000
 -0.333333  0.111111  0.000000      4.000000
 -0.277778  0.111111  0.000000      4.000000
 -0.222222  0.111111  0.000000      4.000000
 -0.166667  0.111111  0.000000      4.000000
 -0.111111  0.111111  0.000000      2.000000
  0.166667  0.166667  0.000000      2.000000
  0.222222  0.166667  0.000000      4.000000
  0.277778  0.166667  0.000000      4.000000
  0.333333  0.166667  0.000000      4.000000
  0.388889  0.166667  0.000000      4.000000
  0.444444  0.166667  0.000000      4.000000
  0.500000  0.166667  0.000000      4.000000
 -0.444444  0.166667  0.000000      4.000000
 -0.388889  0.166667  0.000000      4.000000
 -0.333333  0.166667  0.000000      4.000000
 -0.277778  0.166667  0.000000      4.000000
 -0.222222  0.166667  0.000000      4.000000
 -0.166667  0.166667  0.000000      2.000000
  0.222222  0.222222  0.000000      2.000000
  0.277778  0.222222  0.000000      4.000000
  0.333333  0.222222  0.000000      4.000000
  0.388889  0.222222  0.000000      4.000000
  0.444444  0.222222  0.000000      4.000000
[...]
  0.388889  0.333333  0.500000      4.000000
  0.444444  0.333333  0.500000      4.000000
  0.500000  0.333333  0.500000      4.000000
 -0.444444  0.333333  0.500000      4.000000
 -0.388889  0.333333  0.500000      4.000000
 -0.333333  0.333333  0.500000      2.000000
  0.388889  0.388889  0.500000      2.000000
  0.444444  0.388889  0.500000      4.000000
  0.500000  0.388889  0.500000      4.000000
 -0.444444  0.388889  0.500000      4.000000
 -0.388889  0.388889  0.500000      2.000000
  0.444444  0.444444  0.500000      2.000000
  0.500000  0.444444  0.500000      4.000000
 -0.444444  0.444444  0.500000      2.000000
  0.500000  0.500000  0.500000      1.000000

 Following cartesian coordinates:
            Coordinates               Weight
  0.000000  0.000000  0.000000      1.000000
  0.022530  0.013019  0.000000      4.000000
  0.045059  0.026038  0.000000      4.000000
  0.067589  0.039058  0.000000      4.000000
  0.090119  0.052077  0.000000      4.000000
  0.112648  0.065096  0.000000      4.000000
  0.135178  0.078115  0.000000      4.000000
  0.157708  0.091134  0.000000      4.000000
  0.180237  0.104154  0.000000      4.000000
  0.202767  0.117173  0.000000      2.000000
  0.022540  0.039040  0.000000      2.000000
  0.045069  0.052059  0.000000      4.000000
  0.067599  0.065079  0.000000      4.000000
  0.090129  0.078098  0.000000      4.000000
  0.112659  0.091117  0.000000      4.000000
  0.135188  0.104136  0.000000      4.000000
  0.157718  0.117155  0.000000      4.000000
  0.180248  0.130175  0.000000      4.000000
  0.202777  0.143194  0.000000      4.000000
 -0.180227 -0.078133  0.000000      4.000000
 -0.157698 -0.065114  0.000000      4.000000
 -0.135168 -0.052094  0.000000      4.000000
 -0.112638 -0.039075  0.000000      4.000000
 -0.090109 -0.026056  0.000000      4.000000
 -0.067579 -0.013037  0.000000      4.000000
 -0.045049 -0.000018  0.000000      4.000000
 -0.022520  0.013002  0.000000      2.000000
  0.045080  0.078080  0.000000      2.000000
  0.067609  0.091099  0.000000      4.000000
  0.090139  0.104119  0.000000      4.000000
  0.112669  0.117138  0.000000      4.000000
  0.135198  0.130157  0.000000      4.000000
  0.157728  0.143176  0.000000      4.000000
  0.180258  0.156195  0.000000      4.000000
  0.202787  0.169215  0.000000      4.000000
 -0.180217 -0.052112  0.000000      4.000000
 -0.157688 -0.039093  0.000000      4.000000
 -0.135158 -0.026073  0.000000      4.000000
 -0.112628 -0.013054  0.000000      4.000000
 -0.090098 -0.000035  0.000000      4.000000
 -0.067569  0.012984  0.000000      4.000000
 -0.045039  0.026003  0.000000      2.000000
  0.067619  0.117120  0.000000      2.000000
  0.090149  0.130139  0.000000      4.000000
  0.112679  0.143159  0.000000      4.000000
  0.135208  0.156178  0.000000      4.000000
  0.157738  0.169197  0.000000      4.000000
  0.180268  0.182216  0.000000      4.000000
  0.202798  0.195236  0.000000      4.000000
 -0.180207 -0.026091  0.000000      4.000000
 -0.157677 -0.013072  0.000000      4.000000
 -0.135148 -0.000053  0.000000      4.000000
 -0.112618  0.012967  0.000000      4.000000
 -0.090088  0.025986  0.000000      4.000000
 -0.067559  0.039005  0.000000      2.000000
  0.090159  0.156160  0.000000      2.000000
  0.112689  0.169180  0.000000      4.000000
  0.135219  0.182199  0.000000      4.000000
  0.157748  0.195218  0.000000      4.000000
  0.180278  0.208237  0.000000      4.000000
[...]
  0.157769  0.247260  0.012500      4.000000
  0.180298  0.260279  0.012500      4.000000
  0.202828  0.273298  0.012500      4.000000
 -0.180177  0.051972  0.012500      4.000000
 -0.157647  0.064991  0.012500      4.000000
 -0.135117  0.078010  0.012500      2.000000
  0.157779  0.273281  0.012500      2.000000
  0.180308  0.286300  0.012500      4.000000
  0.202838  0.299319  0.012500      4.000000
 -0.180167  0.077993  0.012500      4.000000
 -0.157637  0.091012  0.012500      2.000000
  0.180318  0.312321  0.012500      2.000000
  0.202848  0.325340  0.012500      4.000000
 -0.180156  0.104013  0.012500      2.000000
  0.202858  0.351361  0.012500      1.000000

 TETIRR: Found   3888 inequivalent tetrahedra from    15552

 I would recommend the setting:
   dimension x,y,z NGX =    20 NGY =   20 NGZ =  320
 SYSTEM =  graphite
 POSCAR =  CIF file

 Startparameter for this run:
   NWRITE =      2    write-flag & timer
   PREC   = accura    normal or accurate (medium, high low for compatibility)
   ISTART =      0    job   : 0-new  1-cont  2-samecut
   ICHARG =      2    charge: 1-file 2-atom 10-const
   ISPIN  =      1    spin polarized calculation?
   LNONCOLLINEAR =      F non collinear calculations
   LSORBIT =      F    spin-orbit coupling
[...]
 k-point 28 :   0.1111 0.1111 0.0000  plane waves:    6969
 k-point 29 :   0.1667 0.1111 0.0000  plane waves:    7000
 k-point 30 :   0.2222 0.1111 0.0000  plane waves:    6993
 k-point 31 :   0.2778 0.1111 0.0000  plane waves:    7000
 k-point 32 :   0.3333 0.1111 0.0000  plane waves:    7047
 k-point 33 :   0.3889 0.1111 0.0000  plane waves:    7065
 k-point 34 :   0.4444 0.1111 0.0000  plane waves:    7077
 k-point 35 :   0.5000 0.1111 0.0000  plane waves:    7065
 k-point 36 :  -0.4444 0.1111 0.0000  plane waves:    7045
 k-point 37 :  -0.3889 0.1111 0.0000  plane waves:    7002
 k-point 38 :  -0.3333 0.1111 0.0000  plane waves:    6991
 k-point 39 :  -0.2778 0.1111 0.0000  plane waves:    6998
 k-point 40 :  -0.2222 0.1111 0.0000  plane waves:    6975
 k-point 41 :  -0.1667 0.1111 0.0000  plane waves:    6954
 k-point 42 :  -0.1111 0.1111 0.0000  plane waves:    6925
 k-point 43 :   0.1667 0.1667 0.0000  plane waves:    6995
 k-point 44 :   0.2222 0.1667 0.0000  plane waves:    6998
 k-point 45 :   0.2778 0.1667 0.0000  plane waves:    7047
 k-point 46 :   0.3333 0.1667 0.0000  plane waves:    7079
 k-point 47 :   0.3889 0.1667 0.0000  plane waves:    7093
 k-point 48 :   0.4444 0.1667 0.0000  plane waves:    7091
 k-point 49 :   0.5000 0.1667 0.0000  plane waves:    7079
 k-point 50 :  -0.4444 0.1667 0.0000  plane waves:    7043
 k-point 51 :  -0.3889 0.1667 0.0000  plane waves:    7000
 k-point 52 :  -0.3333 0.1667 0.0000  plane waves:    6999
 k-point 53 :  -0.2778 0.1667 0.0000  plane waves:    6998
 k-point 54 :  -0.2222 0.1667 0.0000  plane waves:    7001
 k-point 55 :  -0.1667 0.1667 0.0000  plane waves:    6987
 k-point 56 :   0.2222 0.2222 0.0000  plane waves:    7047
 k-point 57 :   0.2778 0.2222 0.0000  plane waves:    7090
 k-point 58 :   0.3333 0.2222 0.0000  plane waves:    7108
 k-point 59 :   0.3889 0.2222 0.0000  plane waves:    7119
 k-point 60 :   0.4444 0.2222 0.0000  plane waves:    7106
[...]
 k-point 85 :   0.5000 0.3889 0.0000  plane waves:    7067
 k-point 86 :  -0.4444 0.3889 0.0000  plane waves:    7034
 k-point 87 :  -0.3889 0.3889 0.0000  plane waves:    7040
 k-point 88 :   0.4444 0.4444 0.0000  plane waves:    7081
 k-point 89 :   0.5000 0.4444 0.0000  plane waves:    7048
 k-point 90 :  -0.4444 0.4444 0.0000  plane waves:    7042
 k-point 91 :   0.5000 0.5000 0.0000  plane waves:    7020
 k-point 92 :   0.0000 0.0000 0.1250  plane waves:    6898
 k-point 93 :   0.0556 0.0000 0.1250  plane waves:    6913
 k-point 94 :   0.1111 0.0000 0.1250  plane waves:    6923
 k-point 95 :   0.1667-0.0000 0.1250  plane waves:    6990
 k-point 96 :   0.2222 0.0000 0.1250  plane waves:    7004
 k-point 97 :   0.2778 0.0000 0.1250  plane waves:    6987
 k-point 98 :   0.3333-0.0000 0.1250  plane waves:    7014
 k-point 99 :   0.3889 0.0000 0.1250  plane waves:    7044
 k-point ** :   0.4444 0.0000 0.1250  plane waves:    7043
 k-point ** :   0.5000 0.0000 0.1250  plane waves:    7016
 k-point ** :   0.0556 0.0556 0.1250  plane waves:    6907
 k-point ** :   0.1111 0.0556 0.1250  plane waves:    6955
 k-point ** :   0.1667 0.0556 0.1250  plane waves:    6991
 k-point ** :   0.2222 0.0556 0.1250  plane waves:    6990
 k-point ** :   0.2778 0.0556 0.1250  plane waves:    6993
 k-point ** :   0.3333 0.0556 0.1250  plane waves:    7024
 k-point ** :   0.3889 0.0556 0.1250  plane waves:    7030
 k-point ** :   0.4444 0.0556 0.1250  plane waves:    7044
 k-point ** :   0.5000 0.0556 0.1250  plane waves:    7043
 k-point ** :  -0.4444 0.0556 0.1250  plane waves:    7033
 k-point ** :  -0.3889 0.0556 0.1250  plane waves:    7027
 k-point ** :  -0.3333 0.0556 0.1250  plane waves:    6996
 k-point ** :  -0.2778 0.0556 0.1250  plane waves:    6991
 k-point ** :  -0.2222 0.0556 0.1250  plane waves:    6995
 k-point ** :  -0.1667 0.0556 0.1250  plane waves:    6955
 k-point ** :  -0.1111 0.0556 0.1250  plane waves:    6919
 k-point ** :  -0.0556 0.0556 0.1250  plane waves:    6913
 k-point ** :   0.1111 0.1111 0.1250  plane waves:    6974
 k-point ** :   0.1667 0.1111 0.1250  plane waves:    6994
 k-point ** :   0.2222 0.1111 0.1250  plane waves:    6996
 k-point ** :   0.2778 0.1111 0.1250  plane waves:    7005
 k-point ** :   0.3333 0.1111 0.1250  plane waves:    7045
 k-point ** :   0.3889 0.1111 0.1250  plane waves:    7065
 k-point ** :   0.4444 0.1111 0.1250  plane waves:    7079
 k-point ** :   0.5000 0.1111 0.1250  plane waves:    7065
 k-point ** :  -0.4444 0.1111 0.1250  plane waves:    7046
 k-point ** :  -0.3889 0.1111 0.1250  plane waves:    7006
 k-point ** :  -0.3333 0.1111 0.1250  plane waves:    6993
 k-point ** :  -0.2778 0.1111 0.1250  plane waves:    6993
 k-point ** :  -0.2222 0.1111 0.1250  plane waves:    6973
 k-point ** :  -0.1667 0.1111 0.1250  plane waves:    6958
 k-point ** :  -0.1111 0.1111 0.1250  plane waves:    6926
 k-point ** :   0.1667 0.1667 0.1250  plane waves:    7002
 k-point ** :   0.2222 0.1667 0.1250  plane waves:    7000
 k-point ** :   0.2778 0.1667 0.1250  plane waves:    7038
 k-point ** :   0.3333 0.1667 0.1250  plane waves:    7078
 k-point ** :   0.3889 0.1667 0.1250  plane waves:    7095
 k-point ** :   0.4444 0.1667 0.1250  plane waves:    7091
 k-point ** :   0.5000 0.1667 0.1250  plane waves:    7077
 k-point ** :  -0.4444 0.1667 0.1250  plane waves:    7039
 k-point ** :  -0.3889 0.1667 0.1250  plane waves:    6999
 k-point ** :  -0.3333 0.1667 0.1250  plane waves:    7000
 k-point ** :  -0.2778 0.1667 0.1250  plane waves:    6994
 k-point ** :  -0.2222 0.1667 0.1250  plane waves:    6997
 k-point ** :  -0.1667 0.1667 0.1250  plane waves:    6990
 k-point ** :   0.2222 0.2222 0.1250  plane waves:    7049
 k-point ** :   0.2778 0.2222 0.1250  plane waves:    7086
 k-point ** :   0.3333 0.2222 0.1250  plane waves:    7110
 k-point ** :   0.3889 0.2222 0.1250  plane waves:    7119
 k-point ** :   0.4444 0.2222 0.1250  plane waves:    7107
 k-point ** :   0.5000 0.2222 0.1250  plane waves:    7088
 k-point ** :  -0.4444 0.2222 0.1250  plane waves:    7051
 k-point ** :  -0.3889 0.2222 0.1250  plane waves:    6998
 k-point ** :  -0.3333 0.2222 0.1250  plane waves:    6992
 k-point ** :  -0.2778 0.2222 0.1250  plane waves:    6993
 k-point ** :  -0.2222 0.2222 0.1250  plane waves:    7005
 k-point ** :   0.2778 0.2778 0.1250  plane waves:    7128
 k-point ** :   0.3333 0.2778 0.1250  plane waves:    7144
[...]
 k-point ** :   0.3889 0.3333 0.5000  plane waves:    7142
 k-point ** :   0.4444 0.3333 0.5000  plane waves:    7104
 k-point ** :   0.5000 0.3333 0.5000  plane waves:    7082
 k-point ** :  -0.4444 0.3333 0.5000  plane waves:    7050
 k-point ** :  -0.3889 0.3333 0.5000  plane waves:    7026
 k-point ** :  -0.3333 0.3333 0.5000  plane waves:    7014
 k-point ** :   0.3889 0.3889 0.5000  plane waves:    7114
 k-point ** :   0.4444 0.3889 0.5000  plane waves:    7086
 k-point ** :   0.5000 0.3889 0.5000  plane waves:    7072
 k-point ** :  -0.4444 0.3889 0.5000  plane waves:    7036
 k-point ** :  -0.3889 0.3889 0.5000  plane waves:    7044
 k-point ** :   0.4444 0.4444 0.5000  plane waves:    7078
 k-point ** :   0.5000 0.4444 0.5000  plane waves:    7048
 k-point ** :  -0.4444 0.4444 0.5000  plane waves:    7030
 k-point ** :   0.5000 0.5000 0.5000  plane waves:    7008

 maximum and minimum number of plane-waves per node :      2403     2289

 maximum number of plane-waves:      7158
 maximum index in each direction:
   IXMAX=    5   IYMAX=    4   IZMAX=   79
   IXMIN=   -5   IYMIN=   -5   IZMIN=  -80

 WARNING: aliasing errors must be expected set NGX to  22 to avoid them
 NGY is ok and might be reduce to  20
 NGZ is ok and might be reduce to 320
 aliasing errors are usually negligible using standard VASP settings
 and one can safely disregard these warnings

 parallel 3D FFT for wavefunctions:
    minimum data exchange during FFTs selected (reduces bandwidth)
 parallel 3D FFT for charge:
    minimum data exchange during FFTs selected (reduces bandwidth)

 Broyden mixing: mesh for mixing (old mesh)
   NGX =  9   NGY =  9   NGZ =159
  (NGX  = 40   NGY  = 40   NGZ  =640)
  gives a total of  12879 points

 initial charge density was supplied:
 charge density of overlapping atoms calculated
 number of electron      16.0000000 magnetization
 keeping initial charge density in first step

 Maximum index for augmentation-charges         1315 (set IRDMAX)

 First call to EWALD:  gamma=   0.298
 Maximum number of real-space cells 7x 7x 1
 Maximum number of reciprocal cells 1x 1x16

 FEWALD executed in parallel

----------------------------------------- Iteration    1(   1)  ---------------------------------------

 BZINTS: Fermi energy:  6.740413; 16.000000 electrons
         Band energy: -69.186381;  BLOECHL correction: -1.018332

 eigenvalue-minimisations  : 11504
 total energy-change (2. order) : 0.1508896E+03  (-0.6384953E+03)
 number of electron      16.0000000 magnetization
 augmentation part       16.0000000 magnetization

 Free energy of the ion-electron system (eV)
  alpha Z        PSCENC =         6.18922596
  Ewald energy   TEWEN  =      2589.83877197
  -Hartree energ DENC   =     -3015.06184816
  -exchange      EXHF   =         0.00000000
  -V(xc)+E(xc)   XCENC  =        55.11062331
  PAW double counting   =       151.32577238     -155.92769107
  entropy T*S    EENTRO =         0.00000000
  eigenvalues    EBANDS =       -69.18638125
  atomic energy  EATOM  =       588.60115103
  free energy    TOTEN  =       150.88962417 eV

  energy without entropy =      150.88962417  energy(sigma->0) =      150.88962417

[...]

 BZINTS: Fermi energy: -2.273787; 16.000000 electrons
         Band energy:-237.052292;  BLOECHL correction: -0.219568

 eigenvalue-minimisations  : 18640
 total energy-change (2. order) :-0.1678659E+03  (-0.1445335E+03)
 number of electron      16.0000000 magnetization
 augmentation part       16.0000000 magnetization

[...]

 Broyden mixing:
  rms(total) = 0.78147E+00    rms(broyden)= 0.78138E+00
  rms(prec ) = 0.79954E+00
  weight for this iteration     100.00

[...]

 eigenvalues of (default mixing * dielectric matrix)
  average eigenvalue GAMMA=   2.0503
  2.0503

[...]

 eigenvalue-minimisations  : 12384
 total energy-change (2. order) : 0.1761020E-02  (-0.2272741E-03)
 number of electron      16.0000001 magnetization
 augmentation part        0.3837710 magnetization

[...]

 Broyden mixing:
  rms(total) = 0.69326E-04    rms(broyden)= 0.69020E-04
  rms(prec ) = 0.70549E-04
  weight for this iteration     100.00

 eigenvalues of (default mixing * dielectric matrix)
  average eigenvalue GAMMA=   2.5645
  8.3457  6.8696  4.1688  4.1688  2.6421  2.3063  2.3063  2.1830  1.6614  0.4076
  1.1519  1.1519  0.8115  1.0082  0.8964  0.9529

[...]

----------------------------------------- Iteration    1(  22)  ---------------------------------------

[...]

 eigenvalue-minimisations  :  8792
 total energy-change (2. order) :-0.9299603E-06  (-0.2832745E-08)
 number of electron      16.0000001 magnetization
 augmentation part        0.3834749 magnetization

 Free energy of the ion-electron system (eV)
  alpha Z        PSCENC =         6.18922596
  Ewald energy   TEWEN  =      2589.83877197
  -Hartree energ DENC   =     -3083.75724319
  -exchange      EXHF   =         0.00000000
  -V(xc)+E(xc)   XCENC  =        57.53813500
  PAW double counting   =       277.67944226     -282.84424427
  entropy T*S    EENTRO =         0.00000000
  eigenvalues    EBANDS =      -190.13465903
  atomic energy  EATOM  =       588.60115103
  free energy    TOTEN  =       -36.88942026 eV

  energy without entropy =      -36.88942026  energy(sigma->0) =      -36.88942026

 average (electrostatic) potential at core
  the test charge radii are     0.6991
  (the norm of the test charge is              1.0000)
       1 -58.1780       2 -58.1780       3 -58.1778       4 -58.1778

 E-fermi :  -2.7483     XC(G=0):  -2.1788     alpha+bet : -1.9064

 k-point     1 :       0.0000    0.0000    0.0000
  band No.  band energies     occupation
      1     -22.2615      2.00000
      2     -22.2615      2.00000
      3     -10.3628      2.00000
      4     -10.3628      2.00000
      5      -5.7859      2.00000
      6      -5.7859      2.00000
      7      -5.7662      2.00000
      8      -5.7662      2.00000
      9       0.5208      0.00000
     10       0.5234      0.00000
     11       1.2525      0.00000
     12       1.3154      0.00000

[...]

 k-point   455 :       0.5000    0.5000    0.5000
  band No.  band energies     occupation
      1     -17.0251      2.00000
      2     -17.0251      2.00000
      3     -15.9810      2.00000
      4     -15.9810      2.00000
      5      -9.1406      2.00000
      6      -9.1406      2.00000
      7      -5.1110      2.00000
      8      -5.1110      2.00000
      9      -1.0725      0.00000
     10      -1.0725      0.00000
     11       4.6546      0.00000
     12       4.6546      0.00000

 soft charge-density along one line, spin component           1
         0         1         2         3         4         5         6         7         8         9
 total charge-density along one line

------------------------ aborting loop because EDIFF is reached ----------------------------------------

         DFTD3 V3.0 Rev 1
 IVDW         = 12
 DF pbe
 parameters
 VDW_S6       =    1.0000
 VDW_S8       =    0.7875
 VDW_A1       =    0.4289
 VDW_A2       =    4.4407
 k1-k3        =   16.0000    1.3333   -4.0000
 VDW_RADIUS   =   50.2022 A
 VDW_CNRADIUS =   21.1671 A
 Edisp (eV)   -0.35445

 E6    (eV) :    -0.2435
 E8    (eV) :    -0.1109
 % E8        : 31.29

  FORCE on cell =-STRESS in cart. coord.  units (eV):
  Direction    XX          YY          ZZ          XY          YZ          ZX
  Alpha Z     6.18923     6.18923     6.18923
  Ewald    3127.63837  3127.58101 -3665.38089    -0.04967     0.00000     0.00000
  Hartree  3061.11501  3061.14136 -3038.49247     0.02281    -0.00000    -0.00000
  E(xc)     -58.35520   -58.35503   -60.69391     0.00014     0.00000     0.00000
  Local   -6360.94616 -6360.96947  6497.71595    -0.02019     0.00000     0.00000
  n-local   -14.45836   -13.71476   -12.81025    -0.23812     0.00001     0.00001
  augment    -1.54691    -1.54659    -1.41739     0.00028     0.00000    -0.00000
  Kinetic   243.89135   236.44053   274.81461     2.14569     0.00000    -0.00000
  Fock        0.00000     0.00000     0.00000     0.00000     0.00000     0.00000
  vdW        -0.08628    -0.08564    -0.00090     0.00056    -0.00000    -0.00000
  Total       0.09983     0.02185    -0.07601    -0.06753     0.00000     0.00000
  in kB       0.75931     0.16616    -0.57818    -0.51368     0.00000     0.00000

 VOLUME and BASIS-vectors are now :
  energy-cutoff  :      600.00
  volume of cell :      210.64
      direct lattice vectors                 reciprocal lattice vectors
     2.466437249 -0.000959643  0.000000000     0.405534294  0.234345762  0.000000000
    -1.234049700  2.135517493  0.000000000     0.000182236  0.468375882  0.000000000
     0.000000000  0.000000000 40.000000000     0.000000000  0.000000000  0.025000000

  length of vectors
     2.466437436  2.466437436 40.000000000     0.468375917  0.468375917  0.025000000

 FORCES acting on ions
    electron-ion (+dipol)            ewald-force                    non-local-force                 convergence-correction
   -.168E+00 0.970E-01 0.637E-11   0.108E+00 -.625E-01 -.405E-13   -.214E-01 0.123E-01 0.000E+00   0.333E-04 -.192E-04 0.468E-12
   0.168E+00 -.970E-01 0.121E-11   -.108E+00 0.625E-01 0.405E-13   0.214E-01 -.123E-01 0.000E+00   -.333E-04 0.192E-04 -.324E-12
   0.168E+00 -.970E-01 0.320E-11   -.108E+00 0.625E-01 -.405E-13   0.214E-01 -.123E-01 -.424E-21   -.340E-04 0.197E-04 0.468E-12
   -.168E+00 0.970E-01 -.357E-11   0.108E+00 -.625E-01 0.405E-13   -.214E-01 0.123E-01 0.424E-21   0.340E-04 -.197E-04 -.323E-12
   -.677E-05 -.117E-04 0.720E-11   0.123E-13 -.343E-13 0.000E+00   -.555E-16 -.111E-15 0.000E+00   0.306E-09 0.530E-09 0.290E-12

 POSITION                                       TOTAL-FORCE (eV/Angst)
      2.46402      0.00044     10.00000        -0.081140      0.046846      0.000000
     -1.23163      2.13412     30.00000         0.081140     -0.046846     -0.000000
     -0.00332      1.42496     10.00000         0.081155     -0.046855     -0.000000
      1.23571      0.70960     30.00000        -0.081155      0.046855      0.000000
    total drift:                               -0.000007     -0.000012      0.000000

  FREE ENERGIE OF THE ION-ELECTRON SYSTEM (eV)
  free  energy   TOTEN  =       -37.24386925 eV

  energy  without entropy=      -37.24386925  energy(sigma->0) =      -37.24386925

 BZINTS: Fermi energy: -2.748334; 16.000000 electrons
         Band energy:-190.134659;  BLOECHL correction:  0.000000