 vasp.5.3.5 31Mar14 (build Nov 04 2014 22:34:45) complex

 executed on         atom-AMD-MKL date 2016.08.13  17:09:02

 INCAR:
 POTCAR:   PAW_PBE C 08Apr2002

 POTCAR:   PAW_PBE C 08Apr2002
   VRHFIN =C: s2p2

   TITEL  = PAW_PBE C 08Apr2002
   POMASS =   12.011; ZVAL   =    4.000    mass and valenz
   ENMAX  =  400.000; ENMIN  =  300.000 eV
   QCUT   =   -5.516; QGAM   =   11.032    optimization parameters

   Description
     l     E      TYP  RCUT    TYP  RCUT
     0   .000     23  1.200
     0   .000     23  1.200
     1   .000     23  1.500
     1  2.500     23  1.500
     2   .000      7  1.500

 PAW_PBE C 08Apr2002                    :

 POSCAR: C
  positions in direct lattice
 exchange correlation table for  LEXCH =        8
   RHO(1)=    0.500       N(1)  =     2000
   RHO(2)=  100.500       N(2)  =     4000

 ion  position               nearest neighbor table
   1  0.500  0.000  0.125-  20 1.42  18 1.42  19 1.42
   2  1.000  0.000  0.125-  19 1.42  20 1.42  17 1.42
   3  0.500  0.500  0.125-  17 1.42  18 1.42  20 1.42
   4  1.000  0.500  0.125-  19 1.42  18 1.42  17 1.43
   5  0.500  0.000  0.625-  24 1.42  22 1.42  23 1.42
   6  1.000  0.000  0.625-  23 1.42  21 1.42  24 1.42
   7  0.500  0.500  0.625-  22 1.42  24 1.42  21 1.42
   8  1.000  0.500  0.625-  21 1.42  23 1.42  22 1.42
   9  0.000  0.500  0.375-  28 1.42  27 1.42  26 1.42
  10  0.500  0.500  0.375-  27 1.42  28 1.42  25 1.42
  11  0.000  1.000  0.375-  26 1.42  25 1.42  28 1.42
  12  0.500  1.000  0.375-  25 1.42  26 1.42  27 1.42
  13  0.000  0.500  0.875-  32 1.42  31 1.42  30 1.42
  14  0.500  0.500  0.875-  31 1.42  32 1.42  29 1.42
  15  0.000  1.000  0.875-  30 1.42  29 1.42  32 1.42
  16  0.500  1.000  0.875-  29 1.42  30 1.42  31 1.42
  17  0.167  0.333  0.126-   3 1.42   2 1.42   4 1.43
  18  0.667  0.333  0.125-   3 1.42   1 1.42   4 1.42
  19  0.167  0.833  0.125-   2 1.42   4 1.42   1 1.42
  20  0.667  0.833  0.125-   1 1.42   3 1.42   2 1.42
  21  0.167  0.333  0.625-   8 1.42   6 1.42   7 1.42
  22  0.667  0.333  0.625-   7 1.42   5 1.42   8 1.42
  23  0.167  0.833  0.625-   6 1.42   8 1.42   5 1.42
  24  0.667  0.833  0.625-   5 1.42   7 1.42   6 1.42
  25  0.333  0.167  0.375-  12 1.42  11 1.42  10 1.42
  26  0.833  0.167  0.375-  11 1.42  12 1.42   9 1.42
  27  0.333  0.667  0.375-  10 1.42   9 1.42  12 1.42
  28  0.833  0.667  0.375-   9 1.42  10 1.42  11 1.42
  29  0.333  0.167  0.875-  16 1.42  15 1.42  14 1.42
  30  0.833  0.167  0.875-  15 1.42  16 1.42  13 1.42
  31  0.333  0.667  0.875-  14 1.42  13 1.42  16 1.42
  32  0.833  0.667  0.875-  13 1.42  14 1.42  15 1.42

  LATTYP: Found a base centered orthorhombic cell.
 ALAT       =     4.9339256766
 B/A-ratio  =     1.7322311103
 C/A-ratio  =     2.9989574343

  Lattice vectors:

 A1 = (   4.9343108848,  -0.0002224000,   0.0000000000)
 A2 = (  -2.4673480464,   4.2731273763,   0.0000000000)
 A3 = (   0.0000000000,   0.0000000000,  14.7966330880)

Analysis of symmetry for initial positions (statically):
 Subroutine PRICEL returns:
 Original cell was already a primitive cell.

 Routine SETGRP: Setting up the symmetry group for a
 base centered orthorhombic supercell.

 Subroutine GETGRP returns: Found  1 space group operations
 (whereof  1 operations were pure point group operations)
 out of a pool of  8 trial point group operations.

The static configuration has the point symmetry C_1 .

Analysis of symmetry for dynamics (positions and initial velocities):
 Subroutine PRICEL returns:
 Original cell was already a primitive cell.

 Routine SETGRP: Setting up the symmetry group for a
 base centered orthorhombic supercell.

 Subroutine GETGRP returns: Found  1 space group operations
 (whereof  1 operations were pure point group operations)
 out of a pool of  8 trial point group operations.

The dynamic configuration has the point symmetry C_1 .

 KPOINTS: B4C B11C-CBC

Automatic generation of k-mesh.
Space group operators:
 irot       det(A)        alpha          n_x          n_y          n_z        tau_x        tau_y        tau_z
    1     1.000000     0.000000     1.000000     0.000000     0.000000     0.000000     0.000000     0.000000

 Subroutine IBZKPT returns following result:

 Found    163 irreducible k-points:

 Following reciprocal coordinates:
            Coordinates               Weight
  0.000000  0.000000  0.000000      1.000000
  0.111111  0.000000  0.000000      2.000000
  0.222222 -0.000000  0.000000      2.000000
  0.333333  0.000000  0.000000      2.000000
  0.444444 -0.000000  0.000000      2.000000
  0.000000  0.111111  0.000000      2.000000
  0.111111  0.111111  0.000000      2.000000
  0.222222  0.111111  0.000000      2.000000
  0.333333  0.111111  0.000000      2.000000
  0.444444  0.111111  0.000000      2.000000
 -0.444444  0.111111  0.000000      2.000000
 -0.333333  0.111111  0.000000      2.000000
 -0.222222  0.111111  0.000000      2.000000
 -0.111111  0.111111  0.000000      2.000000
 -0.000000  0.222222  0.000000      2.000000
  0.111111  0.222222  0.000000      2.000000
  0.222222  0.222222  0.000000      2.000000
  0.333333  0.222222  0.000000      2.000000
  0.444444  0.222222  0.000000      2.000000
 -0.444444  0.222222  0.000000      2.000000
 -0.333333  0.222222  0.000000      2.000000
 -0.222222  0.222222  0.000000      2.000000
 -0.111111  0.222222  0.000000      2.000000
  0.000000  0.333333  0.000000      2.000000
  0.111111  0.333333  0.000000      2.000000
  0.222222  0.333333  0.000000      2.000000
  0.333333  0.333333  0.000000      2.000000
  0.444444  0.333333  0.000000      2.000000
 -0.444444  0.333333  0.000000      2.000000
 -0.333333  0.333333  0.000000      2.000000
 -0.222222  0.333333  0.000000      2.000000
 -0.111111  0.333333  0.000000      2.000000
 -0.000000  0.444444  0.000000      2.000000
  0.111111  0.444444  0.000000      2.000000
  0.222222  0.444444  0.000000      2.000000
  0.333333  0.444444  0.000000      2.000000
  0.444444  0.444444  0.000000      2.000000
 -0.444444  0.444444  0.000000      2.000000
 -0.333333  0.444444  0.000000      2.000000
 -0.222222  0.444444  0.000000      2.000000
 -0.111111  0.444444  0.000000      2.000000
  0.000000  0.000000  0.250000      2.000000
  0.111111  0.000000  0.250000      2.000000
  0.222222 -0.000000  0.250000      2.000000
  0.333333  0.000000  0.250000      2.000000
  0.444444 -0.000000  0.250000      2.000000
 -0.444444  0.000000  0.250000      2.000000
 -0.333333 -0.000000  0.250000      2.000000
 -0.222222  0.000000  0.250000      2.000000
 -0.111111  0.000000  0.250000      2.000000
  0.000000  0.111111  0.250000      2.000000
  0.111111  0.111111  0.250000      2.000000
  0.222222  0.111111  0.250000      2.000000
  0.333333  0.111111  0.250000      2.000000
  0.444444  0.111111  0.250000      2.000000
 -0.444444  0.111111  0.250000      2.000000
 -0.333333  0.111111  0.250000      2.000000
 -0.222222  0.111111  0.250000      2.000000
 -0.111111  0.111111  0.250000      2.000000
 -0.000000  0.222222  0.250000      2.000000
[...]
  0.333333  0.333333  0.500000      2.000000
  0.444444  0.333333  0.500000      2.000000
 -0.444444  0.333333  0.500000      2.000000
 -0.333333  0.333333  0.500000      2.000000
 -0.222222  0.333333  0.500000      2.000000
 -0.111111  0.333333  0.500000      2.000000
 -0.000000  0.444444  0.500000      2.000000
  0.111111  0.444444  0.500000      2.000000
  0.222222  0.444444  0.500000      2.000000
  0.333333  0.444444  0.500000      2.000000
  0.444444  0.444444  0.500000      2.000000
 -0.444444  0.444444  0.500000      2.000000
 -0.333333  0.444444  0.500000      2.000000
 -0.222222  0.444444  0.500000      2.000000
 -0.111111  0.444444  0.500000      2.000000

 Following cartesian coordinates:
            Coordinates               Weight
  0.000000  0.000000  0.000000      1.000000
  0.022519  0.013002  0.000000      2.000000
  0.045037  0.026005  0.000000      2.000000
  0.067556  0.039007  0.000000      2.000000
  0.090075  0.052010  0.000000      2.000000
  0.000001  0.026003  0.000000      2.000000
  0.022520  0.039005  0.000000      2.000000
  0.045038  0.052008  0.000000      2.000000
  0.067557  0.065010  0.000000      2.000000
  0.090076  0.078013  0.000000      2.000000
 -0.090073 -0.026007  0.000000      2.000000
 -0.067555 -0.013005  0.000000      2.000000
 -0.045036 -0.000002  0.000000      2.000000
 -0.022517  0.013000  0.000000      2.000000
  0.000002  0.052006  0.000000      2.000000
  0.022521  0.065008  0.000000      2.000000
  0.045040  0.078011  0.000000      2.000000
  0.067558  0.091013  0.000000      2.000000
  0.090077  0.104016  0.000000      2.000000
 -0.090072 -0.000004  0.000000      2.000000
 -0.067554  0.012998  0.000000      2.000000
 -0.045035  0.026001  0.000000      2.000000
 -0.022516  0.039003  0.000000      2.000000
  0.000004  0.078009  0.000000      2.000000
  0.022522  0.091011  0.000000      2.000000
  0.045041  0.104014  0.000000      2.000000
  0.067559  0.117016  0.000000      2.000000
  0.090078  0.130019  0.000000      2.000000
 -0.090071  0.025999  0.000000      2.000000
 -0.067552  0.039001  0.000000      2.000000
 -0.045034  0.052004  0.000000      2.000000
 -0.022515  0.065006  0.000000      2.000000
  0.000005  0.104012  0.000000      2.000000
  0.022523  0.117014  0.000000      2.000000
  0.045042  0.130017  0.000000      2.000000
  0.067561  0.143019  0.000000      2.000000
  0.090079  0.156022  0.000000      2.000000
 -0.090070  0.052002  0.000000      2.000000
 -0.067551  0.065004  0.000000      2.000000
 -0.045033  0.078007  0.000000      2.000000
 -0.022514  0.091009  0.000000      2.000000
  0.000000  0.000000  0.016896      2.000000
  0.022519  0.013002  0.016896      2.000000
  0.045037  0.026005  0.016896      2.000000
  0.067556  0.039007  0.016896      2.000000
  0.090075  0.052010  0.016896      2.000000
 -0.090075 -0.052010  0.016896      2.000000
 -0.067556 -0.039007  0.016896      2.000000
 -0.045037 -0.026005  0.016896      2.000000
 -0.022519 -0.013002  0.016896      2.000000
  0.000001  0.026003  0.016896      2.000000
  0.022520  0.039005  0.016896      2.000000
  0.045038  0.052008  0.016896      2.000000
  0.067557  0.065010  0.016896      2.000000
  0.090076  0.078013  0.016896      2.000000
 -0.090073 -0.026007  0.016896      2.000000
 -0.067555 -0.013005  0.016896      2.000000
 -0.045036 -0.000002  0.016896      2.000000
 -0.022517  0.013000  0.016896      2.000000
  0.000002  0.052006  0.016896      2.000000
[...]
  0.067559  0.117016  0.033791      2.000000
  0.090078  0.130019  0.033791      2.000000
 -0.090071  0.025999  0.033791      2.000000
 -0.067552  0.039001  0.033791      2.000000
 -0.045034  0.052004  0.033791      2.000000
 -0.022515  0.065006  0.033791      2.000000
  0.000005  0.104012  0.033791      2.000000
  0.022523  0.117014  0.033791      2.000000
  0.045042  0.130017  0.033791      2.000000
  0.067561  0.143019  0.033791      2.000000
  0.090079  0.156022  0.033791      2.000000
 -0.090070  0.052002  0.033791      2.000000
 -0.067551  0.065004  0.033791      2.000000
 -0.045033  0.078007  0.033791      2.000000
 -0.022514  0.091009  0.033791      2.000000

[...]

[...]

 eigenvalue-minimisations  : 18552
 total energy-change (2. order) : 0.7627659E-07  (-0.2366986E-07)
 number of electron     128.0000011 magnetization
 augmentation part        3.0636928 magnetization

 Free energy of the ion-electron system (eV)
  alpha Z        PSCENC =       267.44094719
  Ewald energy   TEWEN  =     -3181.99732241
  -Hartree energ DENC   =     -1835.01814936
  -exchange      EXHF   =         0.00000000
  -V(xc)+E(xc)   XCENC  =       460.45526978
  PAW double counting   =      2218.44239671    -2259.74707470
  entropy T*S    EENTRO =         0.00000000
  eigenvalues    EBANDS =      -673.42505570
  atomic energy  EATOM  =      4708.80920826
  free energy    TOTEN  =      -295.03978023 eV

  energy without entropy =     -295.03978023  energy(sigma->0) =     -295.03978023

 average (electrostatic) potential at core
  the test charge radii are     0.6991
  (the norm of the test charge is              1.0000)
       1 -51.5652       2 -51.5652       3 -51.5654       4 -51.5650       5 -51.5652
       6 -51.5652       7 -51.5652       8 -51.5652       9 -51.5644      10 -51.5644
      11 -51.5644      12 -51.5645      13 -51.5643      14 -51.5643      15 -51.5643
      16 -51.5642      17 -51.5547      18 -51.5546      19 -51.5532      20 -51.5561
      21 -51.5547      22 -51.5547      23 -51.5547      24 -51.5547      25 -51.5546
      26 -51.5545      27 -51.5545      28 -51.5545      29 -51.5543      30 -51.5543
      31 -51.5543      32 -51.5543

 E-fermi :   3.8561     XC(G=0):  -9.6324     alpha+bet :-10.2971

 k-point     1 :       0.0000    0.0000    0.0000
  band No.  band energies     occupation
      1     -15.6996      2.00000
      2     -15.6335      2.00000
      3     -15.6330      2.00000
      4     -15.5645      2.00000
      5     -10.4242      2.00000
      6     -10.4217      2.00000
      7     -10.4198      2.00000
      8     -10.4006      2.00000
      9     -10.3968      2.00000
     10     -10.3968      2.00000
     11     -10.3960      2.00000
     12     -10.3960      2.00000
     13     -10.3929      2.00000
     14     -10.3752      2.00000
     15     -10.3736      2.00000
     16     -10.3712      2.00000
     17      -9.3671      2.00000
     18      -9.3656      2.00000
     19      -9.3645      2.00000
     20      -9.3515      2.00000
     21      -9.3492      2.00000
     22      -9.3485      2.00000
     23      -9.3477      2.00000
     24      -9.3477      2.00000
     25      -9.3458      2.00000
     26      -9.3291      2.00000
     27      -9.3281      2.00000
     28      -9.3263      2.00000
     29      -4.2915      2.00000
     30      -3.7550      2.00000
     31      -3.7539      2.00000
     32      -3.1298      2.00000
     33      -2.5431      2.00000
     34      -2.5406      2.00000
     35      -2.5396      2.00000
     36      -2.5332      2.00000
     37      -2.5311      2.00000
     38      -2.5311      2.00000
     39      -2.5301      2.00000
     40      -2.5281      2.00000
     41      -2.5280      2.00000
     42      -2.5215      2.00000
     43      -2.5191      2.00000
     44      -2.5179      2.00000
     45       0.8327      2.00000
     46       0.8385      2.00000
     47       0.8410      2.00000
     48       0.8428      2.00000
     49       0.8435      2.00000
     50       0.8458      2.00000
     51       0.8479      2.00000
     52       0.8528      2.00000
     53       1.2870      2.00000
     54       1.2888      2.00000
     55       1.2904      2.00000
     56       1.4978      2.00000
     57       1.5013      2.00000
     58       1.5015      2.00000
     59       1.5016      2.00000
     60       1.5017      2.00000
[...]
     70       5.5214      0.00000
     71       5.5221      0.00000
     72       5.5223      0.00000
     73       5.5256      0.00000
     74       5.8181      0.00000
     75       5.8197      0.00000
     76       5.8216      0.00000
     77       7.5046      0.00000
     78       9.4622      0.00000
     79       9.4644      0.00000
     80      11.1377      0.00000
     81      11.1409      0.00000
     82      11.1457      0.00000
     83      11.2282      0.00000
     84      11.2321      0.00000

[...]

 k-point   163 :      -0.1111    0.4444    0.5000
  band No.  band energies     occupation
      1     -14.7340      2.00000
      2     -14.7338      2.00000
      3     -14.6447      2.00000
      4     -14.6446      2.00000
      5     -13.4427      2.00000
      6     -13.4425      2.00000
      7     -13.3615      2.00000
      8     -13.3614      2.00000
      9     -12.1842      2.00000
     10     -12.1840      2.00000
     11     -12.1110      2.00000
     12     -12.1109      2.00000
     13     -10.4002      2.00000
     14     -10.3999      2.00000
     15     -10.3408      2.00000
     16     -10.3406      2.00000
     17      -7.9252      2.00000
     18      -7.9236      2.00000
     19      -7.8845      2.00000
     20      -7.8831      2.00000
     21      -6.2667      2.00000
     22      -6.2654      2.00000
     23      -6.2311      2.00000
     24      -6.2297      2.00000
     25      -5.2723      2.00000
     26      -5.2708      2.00000
     27      -5.2437      2.00000
     28      -5.2421      2.00000
     29      -5.0178      2.00000
     30      -5.0175      2.00000
     31      -4.9829      2.00000
     32      -4.9827      2.00000
     33      -3.8361      2.00000
     34      -3.8344      2.00000
     35      -3.8131      2.00000
     36      -3.8117      2.00000
     37      -3.0074      2.00000
     38      -3.0067      2.00000
     39      -2.2276      2.00000
     40      -2.2267      2.00000
     41      -2.1704      2.00000
     42      -2.1692      2.00000
     43      -2.1513      2.00000
     44      -2.1500      2.00000
     45      -1.9176      2.00000
     46      -1.9171      2.00000
     47      -1.9028      2.00000
     48      -1.9023      2.00000
     49      -1.4949      2.00000
     50      -1.4942      2.00000
     51      -0.7932      2.00000
     52      -0.7915      2.00000
     53      -0.7816      2.00000
     54      -0.7802      2.00000
     55      -0.7782      2.00000
     56      -0.7774      2.00000
     57      -0.0577      2.00000
     58      -0.0570      2.00000
     59       0.5820      2.00000
     60       0.5826      2.00000
[...]
     70       7.4891      0.00000
     71       7.7564      0.00000
     72       7.7573      0.00000
     73       9.2158      0.00000
     74       9.2175      0.00000
     75       9.3240      0.00000
     76       9.3265      0.00000
     77       9.6313      0.00000
     78       9.6330      0.00000
     79      10.8430      0.00000
     80      10.8462      0.00000
     81      11.9325      0.00000
     82      11.9331      0.00000
     83      12.0895      0.00000
     84      12.0899      0.00000

 soft charge-density along one line, spin component           1
         0         1         2         3         4         5         6         7         8         9
 total charge-density along one line

------------------------ aborting loop because EDIFF is reached ----------------------------------------

         DFTD3 V3.0 Rev 1
 IVDW         = 11
 DF pbe
 parameters
 VDW_S6       =    1.0000
 VDW_S8       =    0.7220
 VDW_SR       =    1.2170
 rs18     =    1.0000
 alpha6   =   14.0000
 alpha8   =   16.0000
 k1-k3    =   16.0000    1.3333   -4.0000
 VDW_RADIUS   =   50.2022 A
 VDW_CNRADIUS =   21.1671 A
 Edisp (eV)   -2.66456

 E6    (eV) :    -1.7743
 E8    (eV) :    -0.8903
 % E8        : 33.41

  FORCE on cell =-STRESS in cart. coord.  units (eV):
  Direction    XX          YY          ZZ          XY          YZ          ZX
  Alpha Z   267.44095   267.44095   267.44095
  Ewald    1118.74511  1118.34700 -5419.11032     0.34792    -0.00004    -0.00750
  Hartree  1654.11912  1654.07189 -1473.16776     0.05563    -0.00002    -0.00153
  E(xc)    -466.99040  -466.99256  -485.05955     0.00094    -0.00001    -0.00001
  Local   -4369.08881 -4368.71808  5025.80314    -0.33660    -0.00001     0.00746
  n-local  -112.38692  -112.40196  -102.38743    -0.00839    -0.00005     0.00021
  augment   -12.34773   -12.34705   -11.32093    -0.00047     0.00000     0.00001
  Kinetic  1920.37825  1920.53111  2199.14792     0.02124     0.00079    -0.00187
  Fock        0.00000     0.00000     0.00000     0.00000     0.00000     0.00000
  vdW        -0.54841    -0.54792    -4.04266     0.00028    -0.00000    -0.00001
  Total      -0.67885    -0.61662    -2.69663     0.08055     0.00067    -0.00324
  in kB      -3.48624    -3.16668   -13.84868     0.41365     0.00344    -0.01664

 VOLUME and BASIS-vectors are now :
  energy-cutoff  :      600.00
  volume of cell :      311.98
      direct lattice vectors                 reciprocal lattice vectors
     4.934310885 -0.000222400  0.000000000     0.202667819  0.117022500  0.000000000
    -2.467348046  4.273127376  0.000000000     0.000010548  0.234026730  0.000000000
     0.000000000  0.000000000 14.796633088     0.000000000  0.000000000  0.067582942

  length of vectors
     4.934310890  4.934310890 14.796633088     0.234026730  0.234026730  0.067582942

 FORCES acting on ions
    electron-ion (+dipol)            ewald-force                    non-local-force                 convergence-correction
   -.788E-01 0.713E-03 0.355E+00   0.676E-01 0.134E-02 -.333E+00   -.343E-02 0.116E-02 0.998E-02   0.438E-03 -.336E-04 -.196E-01
   0.207E+00 -.668E-02 0.882E+00   -.216E+00 0.962E-02 -.895E+00   0.196E-01 0.868E-03 0.804E-01   0.397E-03 -.356E-04 -.197E-01
   -.304E+00 -.295E+00 0.886E+00   0.344E+00 0.325E+00 -.899E+00   0.124E-01 -.300E-02 0.807E-01   0.454E-03 0.726E-05 -.197E-01
   -.315E+00 0.301E+00 0.879E+00   0.356E+00 -.328E+00 -.891E+00   0.115E-01 0.579E-02 0.801E-01   0.446E-03 -.583E-04 -.197E-01
   0.646E-02 0.550E-03 -.107E+00   -.264E-02 0.152E-02 0.879E-01   -.109E-03 0.118E-02 -.282E-03   -.144E-02 -.281E-04 0.195E-01
   0.651E-02 0.547E-03 -.108E+00   -.267E-02 0.152E-02 0.881E-01   -.106E-03 0.117E-02 -.268E-03   -.145E-02 -.244E-04 0.195E-01
   0.648E-02 0.536E-03 -.108E+00   -.265E-02 0.153E-02 0.881E-01   -.107E-03 0.117E-02 -.271E-03   -.144E-02 -.245E-04 0.195E-01
   0.648E-02 0.557E-03 -.108E+00   -.265E-02 0.151E-02 0.881E-01   -.107E-03 0.117E-02 -.265E-03   -.144E-02 -.265E-04 0.195E-01
   0.128E-01 -.611E-02 -.117E+00   -.980E-02 0.441E-02 0.876E-01   0.188E-02 -.106E-02 0.593E-03   0.715E-04 -.550E-04 0.290E-01
   -.123E-01 -.860E-02 -.125E+00   0.153E-01 0.700E-02 0.961E-01   0.189E-02 -.108E-02 0.371E-03   0.972E-04 -.671E-04 0.290E-01
   0.241E-02 0.144E-01 -.121E+00   0.506E-03 -.160E-01 0.918E-01   0.190E-02 -.107E-02 0.482E-03   0.935E-04 -.836E-04 0.290E-01
   -.154E-02 -.921E-04 -.105E+00   0.463E-02 -.154E-02 0.762E-01   0.185E-02 -.107E-02 0.594E-04   0.775E-04 -.706E-04 0.290E-01
   -.120E-01 0.828E-02 -.666E-01   0.151E-01 -.995E-02 0.959E-01   0.191E-02 -.105E-02 0.338E-03   0.764E-04 -.502E-04 -.291E-01
   0.127E-01 0.582E-02 -.587E-01   -.965E-02 -.743E-02 0.877E-01   0.190E-02 -.107E-02 0.565E-03   0.573E-04 -.482E-04 -.291E-01
   0.247E-02 -.144E-01 -.627E-01   0.559E-03 0.128E-01 0.918E-01   0.193E-02 -.106E-02 0.451E-03   0.710E-04 -.215E-04 -.291E-01
   -.142E-02 -.102E-03 -.470E-01   0.458E-02 -.155E-02 0.763E-01   0.188E-02 -.106E-02 0.362E-04   0.653E-04 -.355E-04 -.291E-01
   0.697E+00 0.178E-02 -.198E+01   -.794E+00 -.431E-02 0.205E+01   -.824E-01 -.126E-02 -.182E+00   -.533E-03 0.231E-04 -.196E-01
   -.175E+00 -.326E-03 0.417E+00   0.202E+00 -.153E-02 -.380E+00   0.208E-01 -.120E-02 -.247E-01   -.329E-03 0.296E-04 -.196E-01
   -.150E-01 0.920E-01 0.417E+00   0.199E-01 -.107E+00 -.380E+00   0.110E-01 -.678E-02 -.246E-01   -.436E-03 -.338E-04 -.196E-01
   -.148E-01 -.929E-01 0.417E+00   0.199E-01 0.104E+00 -.380E+00   0.109E-01 0.459E-02 -.247E-01   -.432E-03 0.835E-04 -.196E-01
   -.681E-02 -.363E-03 -.108E+00   0.263E-02 -.152E-02 0.883E-01   -.142E-04 -.112E-02 0.122E-03   0.148E-02 0.301E-05 0.195E-01
   -.688E-02 -.363E-03 -.108E+00   0.270E-02 -.152E-02 0.880E-01   -.155E-04 -.111E-02 0.734E-04   0.149E-02 0.332E-05 0.195E-01
   -.684E-02 -.343E-03 -.108E+00   0.266E-02 -.154E-02 0.880E-01   -.152E-04 -.111E-02 0.732E-04   0.149E-02 0.321E-05 0.195E-01
   -.684E-02 -.389E-03 -.108E+00   0.266E-02 -.150E-02 0.880E-01   -.146E-04 -.112E-02 0.739E-04   0.148E-02 0.916E-05 0.195E-01
   -.132E-01 0.856E-02 -.125E+00   0.100E-01 -.700E-02 0.961E-01   -.179E-02 0.987E-03 -.170E-03   -.820E-04 0.736E-04 0.290E-01
   0.123E-01 0.604E-02 -.117E+00   -.151E-01 -.441E-02 0.876E-01   -.197E-02 0.930E-03 0.842E-04   -.101E-03 0.807E-04 0.290E-01
   0.171E-02 -.148E-01 -.121E+00   -.479E-02 0.160E-01 0.918E-01   -.183E-02 0.111E-02 -.503E-04   -.987E-04 0.970E-04 0.290E-01
   -.228E-02 -.738E-04 -.105E+00   -.656E-03 0.155E-02 0.762E-01   -.195E-02 0.101E-02 -.159E-04   -.818E-04 0.845E-04 0.290E-01
   0.122E-01 -.606E-02 -.586E-01   -.149E-01 0.743E-02 0.877E-01   -.196E-02 0.110E-02 0.524E-04   -.106E-03 0.566E-04 -.291E-01
   -.130E-01 -.850E-02 -.666E-01   0.985E-02 0.996E-02 0.959E-01   -.178E-02 0.104E-02 -.171E-03   -.892E-04 0.587E-04 -.291E-01
   0.168E-02 0.145E-01 -.626E-01   -.473E-02 -.128E-01 0.918E-01   -.182E-02 0.917E-03 -.637E-04   -.935E-04 0.351E-04 -.291E-01
   -.217E-02 -.736E-05 -.472E-01   -.710E-03 0.155E-02 0.763E-01   -.193E-02 0.102E-02 -.266E-04   -.991E-04 0.418E-04 -.291E-01
   -.639E-04 -.220E-05 0.479E-02   0.223E-13 -.120E-13 0.212E-13   0.285E-04 0.127E-04 -.268E-02   0.261E-04 -.639E-05 -.204E-02

 POSITION                                       TOTAL-FORCE (eV/Angst)
      2.46715     -0.00011      1.84958        -0.014182      0.003188      0.011789
      4.93431     -0.00022      1.84958         0.010874      0.003776      0.048313
      1.23348      2.13645      1.84958         0.052652      0.027327      0.047942
      3.70064      2.13634      1.84958         0.052618     -0.020892      0.048643
      2.46715     -0.00011      9.24790         0.002279      0.003213     -0.000358
      4.93431     -0.00022      9.24790         0.002279      0.003212     -0.000354
      1.23348      2.13645      9.24790         0.002280      0.003212     -0.000357
      3.70064      2.13634      9.24790         0.002280      0.003211     -0.000351
     -1.23367      2.13656      5.54874         0.004942     -0.002801      0.000467
      1.23348      2.13645      5.54874         0.004985     -0.002736      0.000508
     -2.46735      4.27313      5.54874         0.004909     -0.002797      0.000487
     -0.00019      4.27302      5.54874         0.005006     -0.002775      0.000203
     -1.23367      2.13656     12.94705         0.005084     -0.002773      0.000530
      1.23348      2.13645     12.94705         0.005040     -0.002731      0.000492
     -2.46735      4.27313     12.94705         0.005025     -0.002721      0.000511
     -0.00019      4.27302     12.94705         0.005105     -0.002742      0.000230
      0.00297      1.42441      1.85907        -0.180365     -0.003765     -0.136115
      2.46696      1.42430      1.84958         0.048405     -0.003026     -0.007571
     -1.23387      3.56098      1.84958         0.015596     -0.021959     -0.007634
      1.23329      3.56086      1.84958         0.015689      0.015879     -0.007524
     -0.00019      1.42441      9.24790        -0.002712     -0.002995      0.000047
      2.46696      1.42430      9.24790        -0.002710     -0.002995      0.000006
     -1.23387      3.56098      9.24790        -0.002710     -0.002995      0.000006
      1.23329      3.56086      9.24790        -0.002710     -0.002995      0.000007
      1.23367      0.71204      5.54874        -0.005074      0.002611     -0.000027
      3.70083      0.71193      5.54874        -0.004887      0.002637      0.000051
     -0.00000      2.84860      5.54874        -0.005002      0.002462      0.000005
      2.46715      2.84849      5.54874        -0.004964      0.002567     -0.000076
      1.23367      0.71204     12.94705        -0.004844      0.002535      0.000079
      3.70083      0.71193     12.94705        -0.005028      0.002559      0.000029
     -0.00000      2.84860     12.94705        -0.004957      0.002705      0.000050
      2.46715      2.84849     12.94705        -0.004906      0.002603     -0.000030
    total drift:                               -0.000009      0.000004      0.000067

  FREE ENERGIE OF THE ION-ELECTRON SYSTEM (eV)
  free  energy   TOTEN  =      -297.70433576 eV

  energy  without entropy=     -297.70433576  energy(sigma->0) =     -297.70433576

 BZINTS: Fermi energy:  3.856108;128.000000 electrons
         Band energy:-673.425056;  BLOECHL correction: -0.000002